*SPEF "IEEE 1481-1998"
*DESIGN "HA"
*DATE "Wed Nov 19 00:30:56 2025"
*VENDOR "Cadence Design Systems, Inc."
*PROGRAM "Innovus"
*VERSION "20.10-p004_1"
*DESIGN_FLOW "PIN_CAP NONE" "NAME_SCOPE LOCAL"
*DIVIDER /
*DELIMITER :
*BUS_DELIMITER []
*T_UNIT 1 NS
*C_UNIT 1 PF
*R_UNIT 1 OHM
*L_UNIT 1 HENRY

// MMMC spef file for corner 'default_rc_corner'

*NAME_MAP

*1 SPCASCAN_N5
*2 SPCASCAN_N4
*3 SPCASCAN_N3
*4 SPCASCAN_N2
*5 SPCASCAN_N1
*6 SPCASCAN_N0
*7 clk
*8 rst_n
*9 motion_sensor
*10 door_sensor
*11 window_sensor
*12 alarm_arm
*13 entry_sensor
*14 exit_sensor
*15 window_auto_mode
*16 window_manual_open
*17 window_manual_close
*18 tv_on_cmd
*19 music_on_cmd
*20 ac_cmd
*21 fan_cmd
*22 light_cmd
*23 door_lock_cmd
*24 door_unlock_cmd
*25 scan_en
*26 DFT_sdi_1
*27 DFT_sdi_2
*28 temp_sensor[7]
*29 temp_sensor[6]
*30 temp_sensor[5]
*31 temp_sensor[4]
*32 temp_sensor[3]
*33 temp_sensor[2]
*34 temp_sensor[1]
*35 temp_sensor[0]
*36 temp_setpoint[7]
*37 temp_setpoint[6]
*38 temp_setpoint[5]
*39 temp_setpoint[4]
*40 temp_setpoint[3]
*41 temp_setpoint[2]
*42 temp_setpoint[1]
*43 temp_setpoint[0]
*44 light_sensor[7]
*45 light_sensor[6]
*46 light_sensor[5]
*47 light_sensor[4]
*48 light_sensor[3]
*49 light_sensor[2]
*50 light_sensor[1]
*51 light_sensor[0]
*52 humidity_sensor[7]
*53 humidity_sensor[6]
*54 humidity_sensor[5]
*55 humidity_sensor[4]
*56 humidity_sensor[3]
*57 humidity_sensor[2]
*58 humidity_sensor[1]
*59 humidity_sensor[0]
*60 water_level[3]
*61 water_level[2]
*62 water_level[1]
*63 water_level[0]
*64 volume_cmd[3]
*65 volume_cmd[2]
*66 volume_cmd[1]
*67 volume_cmd[0]
*68 pin_input[3]
*69 pin_input[2]
*70 pin_input[1]
*71 pin_input[0]
*72 heater_on
*73 cooler_on
*74 water_pump_on
*75 water_valve_close
*76 burglar_alarm_out
*77 tv_on
*78 music_on
*79 ac_on
*80 fan_on
*81 lights_on
*82 door_locked
*83 humidifier_on
*84 dehumidifier_on
*85 DFT_sdo_1
*86 DFT_sdo_2
*87 led_brightness[7]
*88 led_brightness[6]
*89 led_brightness[5]
*90 led_brightness[4]
*91 led_brightness[3]
*92 led_brightness[2]
*93 led_brightness[1]
*94 led_brightness[0]
*95 visitor_count[7]
*96 visitor_count[6]
*97 visitor_count[5]
*98 visitor_count[4]
*99 visitor_count[3]
*100 visitor_count[2]
*101 visitor_count[1]
*102 visitor_count[0]
*103 system_status[7]
*104 system_status[6]
*105 system_status[5]
*106 system_status[4]
*107 system_status[3]
*108 system_status[2]
*109 system_status[1]
*110 system_status[0]
*111 window_state[0]
*112 lock_status[1]
*113 lock_status[0]
*114 volume_level[3]
*115 volume_level[2]
*116 volume_level[1]
*117 volume_level[0]
*118 pin_input_r[3]
*119 pin_input_r[2]
*120 pin_input_r[1]
*121 pin_input_r[0]
*122 lock_status_int[1]
*123 lock_status_int[0]
*124 volume_cmd_r[3]
*125 volume_cmd_r[2]
*126 volume_cmd_r[1]
*127 volume_cmd_r[0]
*128 volume_level_int[3]
*129 volume_level_int[2]
*130 volume_level_int[1]
*131 volume_level_int[0]
*132 humidity_sensor_r[7]
*133 humidity_sensor_r[6]
*134 humidity_sensor_r[5]
*135 humidity_sensor_r[4]
*136 humidity_sensor_r[3]
*137 humidity_sensor_r[2]
*138 humidity_sensor_r[0]
*139 light_sensor_r[7]
*140 light_sensor_r[6]
*141 light_sensor_r[5]
*142 light_sensor_r[4]
*143 light_sensor_r[3]
*144 light_sensor_r[2]
*145 light_sensor_r[1]
*146 light_sensor_r[0]
*147 led_brightness_int[7]
*148 led_brightness_int[6]
*149 led_brightness_int[5]
*150 led_brightness_int[4]
*151 led_brightness_int[3]
*152 led_brightness_int[2]
*153 led_brightness_int[1]
*154 led_brightness_int[0]
*155 temp_sensor_r[7]
*156 temp_sensor_r[6]
*157 temp_sensor_r[5]
*158 temp_sensor_r[4]
*159 temp_sensor_r[3]
*160 temp_sensor_r[2]
*161 temp_sensor_r[1]
*162 temp_sensor_r[0]
*163 temp_setpoint_r[7]
*164 temp_setpoint_r[6]
*165 temp_setpoint_r[5]
*166 temp_setpoint_r[4]
*167 temp_setpoint_r[3]
*168 temp_setpoint_r[2]
*169 temp_setpoint_r[1]
*170 temp_setpoint_r[0]
*171 visitor_count_int[7]
*172 visitor_count_int[6]
*173 visitor_count_int[5]
*174 visitor_count_int[4]
*175 visitor_count_int[3]
*176 visitor_count_int[2]
*177 visitor_count_int[1]
*178 visitor_count_int[0]
*179 water_level_r[3]
*180 water_level_r[2]
*181 water_level_r[1]
*182 water_level_r[0]
*183 window_state_int[1]
*184 window_state_int[0]
*185 ac_cmd_r
*186 ac_on_int
*187 ac_on_r_375
*188 alarm_arm_r
*189 burglar_alarm_out_int
*190 burglar_alarm_out_r_372
*191 cooler_on_int
*192 cooler_on_r_369
*193 dehumidifier_on_int
*194 door_lock_cmd_r
*195 door_locked_int
*196 door_locked_r_378
*197 door_sensor_r
*198 door_unlock_cmd_r
*199 entry_sensor_r
*200 exit_sensor_r
*201 fan_cmd_r
*202 fan_on_int
*203 fan_on_r_376
*204 heater_on_int
*205 heater_on_r_368
*206 humidifier_on_int
*207 light_cmd_r
*208 lights_on_int
*209 lights_on_r_377
*210 motion_sensor_r
*211 music_on_cmd_r
*212 music_on_int
*213 n_0
*214 n_1
*215 n_2
*216 n_3
*217 n_4
*218 n_5
*219 n_6
*220 n_7
*221 n_88
*222 n_89
*223 n_90
*224 n_91
*225 tv_on_cmd_r
*226 tv_on_int
*227 water_pump_on_int
*228 water_pump_on_r_370
*229 water_valve_close_int
*230 window_auto_mode_r
*231 window_manual_close_r
*232 window_manual_open_r
*233 window_sensor_r
*234 u_burglar/delay_counter[7]
*235 u_burglar/delay_counter[6]
*236 u_burglar/delay_counter[5]
*237 u_burglar/delay_counter[4]
*238 u_burglar/delay_counter[2]
*239 u_burglar/delay_counter[1]
*240 u_burglar/delay_counter[0]
*241 u_burglar/n_0
*242 u_burglar/n_1
*243 u_burglar/n_2
*244 u_burglar/n_3
*245 u_burglar/n_4
*246 u_burglar/n_5
*247 u_burglar/n_6
*248 u_burglar/n_7
*249 u_burglar/n_8
*250 u_burglar/n_9
*251 u_burglar/n_10
*252 u_burglar/n_11
*253 u_burglar/n_12
*254 u_burglar/n_13
*255 u_burglar/n_14
*256 u_burglar/n_15
*257 u_burglar/n_16
*258 u_burglar/n_17
*259 u_burglar/n_18
*260 u_burglar/n_19
*261 u_burglar/n_20
*262 u_burglar/n_21
*263 u_burglar/n_22
*264 u_burglar/n_23
*265 u_burglar/n_24
*266 u_burglar/n_25
*267 u_burglar/n_26
*268 u_burglar/n_27
*269 u_burglar/n_29
*270 u_burglar/n_31
*271 u_burglar/n_32
*272 u_burglar/n_33
*273 u_burglar/n_34
*274 u_burglar/n_35
*275 u_burglar/n_36
*276 u_burglar/n_37
*277 u_burglar/n_39
*278 u_burglar/n_46
*279 u_burglar/n_47
*280 u_door_lock/attempt_counter[2]
*281 u_door_lock/attempt_counter[1]
*282 u_door_lock/state[1]
*283 u_door_lock/state[0]
*284 u_door_lock/timeout_counter[6]
*285 u_door_lock/timeout_counter[4]
*286 u_door_lock/timeout_counter[3]
*287 u_door_lock/timeout_counter[2]
*288 u_door_lock/n_0
*289 u_door_lock/n_1
*290 u_door_lock/n_2
*291 u_door_lock/n_3
*292 u_door_lock/n_4
*293 u_door_lock/n_5
*294 u_door_lock/n_6
*295 u_door_lock/n_7
*296 u_door_lock/n_8
*297 u_door_lock/n_9
*298 u_door_lock/n_10
*299 u_door_lock/n_11
*300 u_door_lock/n_12
*301 u_door_lock/n_13
*302 u_door_lock/n_14
*303 u_door_lock/n_15
*304 u_door_lock/n_16
*305 u_door_lock/n_17
*306 u_door_lock/n_18
*307 u_door_lock/n_19
*308 u_door_lock/n_20
*309 u_door_lock/n_21
*310 u_door_lock/n_22
*311 u_door_lock/n_23
*312 u_door_lock/n_24
*313 u_door_lock/n_25
*314 u_door_lock/n_26
*315 u_door_lock/n_27
*316 u_door_lock/n_28
*317 u_door_lock/n_29
*318 u_door_lock/n_30
*319 u_door_lock/n_31
*320 u_door_lock/n_32
*321 u_door_lock/n_33
*322 u_door_lock/n_34
*323 u_door_lock/n_35
*324 u_door_lock/n_36
*325 u_door_lock/n_37
*326 u_door_lock/n_38
*327 u_door_lock/n_39
*328 u_door_lock/n_40
*329 u_door_lock/n_41
*330 u_door_lock/n_42
*331 u_door_lock/n_43
*332 u_door_lock/n_44
*333 u_door_lock/n_45
*334 u_door_lock/n_46
*335 u_door_lock/n_47
*336 u_door_lock/n_48
*337 u_door_lock/n_49
*338 u_door_lock/n_50
*339 u_door_lock/n_51
*340 u_door_lock/n_52
*341 u_door_lock/n_53
*342 u_door_lock/n_54
*343 u_door_lock/n_55
*344 u_entertainment/n_0
*345 u_entertainment/n_1
*346 u_entertainment/n_2
*347 u_entertainment/n_3
*348 u_entertainment/n_4
*349 u_humidity/n_0
*350 u_humidity/n_1
*351 u_humidity/n_2
*352 u_humidity/n_3
*353 u_humidity/n_4
*354 u_humidity/n_5
*355 u_lum_ctrl/n_0
*356 u_lum_ctrl/n_1
*357 u_lum_ctrl/n_2
*358 u_lum_ctrl/n_3
*359 u_lum_ctrl/n_4
*360 u_lum_ctrl/n_5
*361 u_lum_ctrl/n_6
*362 u_lum_ctrl/n_7
*363 u_temp_ctrl/n_2
*364 u_temp_ctrl/n_3
*365 u_temp_ctrl/n_4
*366 u_temp_ctrl/n_5
*367 u_temp_ctrl/n_6
*368 u_temp_ctrl/n_7
*369 u_temp_ctrl/n_8
*370 u_temp_ctrl/n_10
*371 u_temp_ctrl/n_11
*372 u_temp_ctrl/n_12
*373 u_temp_ctrl/n_13
*374 u_temp_ctrl/n_14
*375 u_temp_ctrl/n_15
*376 u_temp_ctrl/n_16
*377 u_temp_ctrl/n_17
*378 u_temp_ctrl/n_18
*379 u_temp_ctrl/n_19
*380 u_temp_ctrl/n_20
*381 u_temp_ctrl/n_21
*382 u_temp_ctrl/n_22
*383 u_temp_ctrl/n_23
*384 u_temp_ctrl/n_24
*385 u_temp_ctrl/n_25
*386 u_temp_ctrl/n_26
*387 u_temp_ctrl/n_27
*388 u_temp_ctrl/n_28
*389 u_temp_ctrl/n_29
*390 u_temp_ctrl/n_30
*391 u_temp_ctrl/n_31
*392 u_temp_ctrl/n_32
*393 u_temp_ctrl/n_33
*394 u_temp_ctrl/n_35
*395 u_temp_ctrl/n_36
*396 u_temp_ctrl/n_37
*397 u_temp_ctrl/n_39
*398 u_temp_ctrl/n_40
*399 u_temp_ctrl/n_41
*400 u_temp_ctrl/n_42
*401 u_temp_ctrl/n_43
*402 u_temp_ctrl/n_44
*403 u_temp_ctrl/n_45
*404 u_temp_ctrl/n_46
*405 u_temp_ctrl/n_47
*406 u_temp_ctrl/n_48
*407 u_temp_ctrl/n_49
*408 u_temp_ctrl/n_50
*409 u_temp_ctrl/n_51
*410 u_temp_ctrl/n_52
*411 u_temp_ctrl/n_53
*412 u_temp_ctrl/n_54
*413 u_temp_ctrl/n_55
*414 u_temp_ctrl/n_56
*415 u_temp_ctrl/n_57
*416 u_temp_ctrl/n_58
*417 u_temp_ctrl/n_59
*418 u_temp_ctrl/n_60
*419 u_temp_ctrl/n_61
*420 u_temp_ctrl/n_62
*421 u_temp_ctrl/n_63
*422 u_temp_ctrl/n_64
*423 u_temp_ctrl/n_65
*424 u_temp_ctrl/n_66
*425 u_temp_ctrl/n_68
*426 u_temp_ctrl/n_69
*427 u_temp_ctrl/n_70
*428 u_temp_ctrl/n_71
*429 u_temp_ctrl/n_72
*430 u_temp_ctrl/n_73
*431 u_temp_ctrl/n_74
*432 u_temp_ctrl/n_75
*433 u_temp_ctrl/n_76
*434 u_temp_ctrl/n_78
*435 u_temp_ctrl/n_79
*436 u_temp_ctrl/n_80
*437 u_temp_ctrl/n_81
*438 u_temp_ctrl/n_82
*439 u_temp_ctrl/n_83
*440 u_temp_ctrl/n_84
*441 u_temp_ctrl/n_85
*442 u_temp_ctrl/n_86
*443 u_temp_ctrl/n_87
*444 u_temp_ctrl/n_88
*445 u_temp_ctrl/n_89
*446 u_temp_ctrl/n_90
*447 u_temp_ctrl/n_91
*448 u_temp_ctrl/n_92
*449 u_temp_ctrl/n_93
*450 u_temp_ctrl/n_112
*451 u_temp_ctrl/n_113
*452 u_temp_ctrl/n_114
*453 u_visitor/entry_prev
*454 u_visitor/n_0
*455 u_visitor/n_1
*456 u_visitor/n_2
*457 u_visitor/n_3
*458 u_visitor/n_4
*459 u_visitor/n_5
*460 u_visitor/n_6
*461 u_visitor/n_7
*462 u_visitor/n_8
*463 u_visitor/n_9
*464 u_visitor/n_10
*465 u_visitor/n_11
*466 u_visitor/n_12
*467 u_visitor/n_13
*468 u_visitor/n_14
*469 u_visitor/n_15
*470 u_visitor/n_16
*471 u_visitor/n_17
*472 u_visitor/n_18
*473 u_visitor/n_19
*474 u_visitor/n_20
*475 u_visitor/n_21
*476 u_visitor/n_22
*477 u_visitor/n_23
*478 u_visitor/n_24
*479 u_visitor/n_25
*480 u_visitor/n_26
*481 u_visitor/n_27
*482 u_visitor/n_28
*483 u_visitor/n_29
*484 u_visitor/n_30
*485 u_visitor/n_31
*486 u_visitor/n_32
*487 u_visitor/n_33
*488 u_visitor/n_34
*489 u_visitor/n_35
*490 u_visitor/n_36
*491 u_visitor/n_37
*492 u_visitor/n_38
*493 u_visitor/n_39
*494 u_visitor/n_40
*495 u_visitor/n_41
*496 u_visitor/n_42
*497 u_visitor/n_43
*498 u_visitor/n_44
*499 u_visitor/n_45
*500 u_visitor/n_46
*501 u_visitor/n_47
*502 u_visitor/n_48
*503 u_visitor/n_49
*504 u_visitor/n_50
*505 u_water_ctrl/n_2
*506 u_water_ctrl/n_3
*507 u_water_ctrl/n_4
*508 u_water_ctrl/n_13
*509 u_window/n_0
*510 u_window/n_1
*511 u_window/n_2
*512 u_window/n_3
*513 u_window/n_4
*514 u_window/n_5
*515 u_window/n_6
*516 u_window/n_7
*517 u_window/n_8
*518 u_window/n_9
*519 u_window/n_10
*520 u_window/n_11
*521 u_window/n_12
*522 window_state[1]
*523 u_appliances/ac_on_reg
*524 u_appliances/fan_on_reg
*525 u_appliances/lights_on_reg
*526 u_burglar/delay_counter_reg\[6\]
*527 u_burglar/g671
*528 u_burglar/delay_counter_reg\[5\]
*529 u_burglar/delay_counter_reg\[7\]
*530 u_burglar/g675
*531 u_burglar/g676
*532 u_burglar/delay_counter_reg\[3\]
*533 u_burglar/g678
*534 u_burglar/delay_counter_reg\[4\]
*535 u_burglar/g680
*536 u_burglar/g681
*537 u_burglar/delay_counter_reg\[8\]
*538 u_burglar/delay_counter_reg\[2\]
*539 u_burglar/g684
*540 u_burglar/g685
*541 u_burglar/g688
*542 u_burglar/g689
*543 u_burglar/g690
*544 u_burglar/g691
*545 u_burglar/g692
*546 u_burglar/alarm_out_reg
*547 u_burglar/delay_counter_reg\[1\]
*548 u_burglar/g695
*549 u_burglar/delay_counter_reg\[0\]
*550 u_burglar/g697
*551 u_burglar/g698
*552 u_burglar/g699
*553 u_burglar/g700
*554 u_burglar/g701
*555 u_burglar/g702
*556 u_burglar/g703
*557 u_burglar/g704
*558 u_burglar/g705
*559 u_burglar/g706
*560 u_burglar/g707
*561 u_burglar/g709
*562 u_burglar/g710
*563 u_burglar/g711
*564 u_burglar/g713
*565 u_burglar/g714
*566 u_burglar/g715
*567 u_burglar/g716
*568 u_burglar/g717
*569 u_burglar/g718
*570 u_burglar/g719
*571 u_burglar/g720
*572 u_burglar/g2
*573 u_burglar/g721
*574 u_burglar/g3
*575 u_door_lock/door_locked_reg
*576 u_door_lock/lock_status_reg\[1\]
*577 u_door_lock/lock_status_reg\[0\]
*578 u_door_lock/g754
*579 u_door_lock/timeout_counter_reg\[7\]
*580 u_door_lock/timeout_counter_reg\[6\]
*581 u_door_lock/g2229
*582 u_door_lock/g2230
*583 u_door_lock/g2231
*584 u_door_lock/timeout_counter_reg\[5\]
*585 u_door_lock/g2233
*586 u_door_lock/g2234
*587 u_door_lock/g2235
*588 u_door_lock/timeout_counter_reg\[4\]
*589 u_door_lock/g2237
*590 u_door_lock/g2238
*591 u_door_lock/g2239
*592 u_door_lock/g2240
*593 u_door_lock/timeout_counter_reg\[3\]
*594 u_door_lock/g2242
*595 u_door_lock/g2243
*596 u_door_lock/g2244
*597 u_door_lock/g2245
*598 u_door_lock/attempt_counter_reg\[0\]
*599 u_door_lock/attempt_counter_reg\[1\]
*600 u_door_lock/timeout_counter_reg\[1\]
*601 u_door_lock/timeout_counter_reg\[2\]
*602 u_door_lock/state_reg\[1\]
*603 u_door_lock/state_reg\[0\]
*604 u_door_lock/g2252
*605 u_door_lock/g2253
*606 u_door_lock/g2254
*607 u_door_lock/timeout_counter_reg\[0\]
*608 u_door_lock/g2256
*609 u_door_lock/g2257
*610 u_door_lock/g2258
*611 u_door_lock/g2259
*612 u_door_lock/g2260
*613 u_door_lock/g2261
*614 u_door_lock/g2262
*615 u_door_lock/attempt_counter_reg\[2\]
*616 u_door_lock/g2264
*617 u_door_lock/g2265
*618 u_door_lock/g2266
*619 u_door_lock/g2267
*620 u_door_lock/g2268
*621 u_door_lock/g2269
*622 u_door_lock/g2270
*623 u_door_lock/g2271
*624 u_door_lock/g2272
*625 u_door_lock/g2274
*626 u_door_lock/g2275
*627 u_door_lock/g2276
*628 u_door_lock/g2277
*629 u_door_lock/g2279
*630 u_door_lock/g2280
*631 u_door_lock/g2281
*632 u_door_lock/g2283
*633 u_door_lock/g2284
*634 u_door_lock/g2285
*635 u_door_lock/g2286
*636 u_door_lock/g2287
*637 u_door_lock/g2288
*638 u_door_lock/g2289
*639 u_door_lock/g2290
*640 u_door_lock/g2295
*641 u_door_lock/g2296
*642 u_door_lock/g2297
*643 u_door_lock/g2298
*644 u_door_lock/g2299
*645 u_door_lock/g2
*646 u_door_lock/g2300
*647 u_entertainment/tv_on_reg
*648 u_entertainment/music_on_reg
*649 u_entertainment/volume_level_reg\[0\]
*650 u_entertainment/volume_level_reg\[2\]
*651 u_entertainment/volume_level_reg\[1\]
*652 u_entertainment/volume_level_reg\[3\]
*653 u_entertainment/g44
*654 u_entertainment/g45
*655 u_entertainment/g46
*656 u_entertainment/g47
*657 u_entertainment/g48
*658 u_humidity/dehumidifier_on_reg
*659 u_humidity/humidifier_on_reg
*660 u_humidity/g202
*661 u_humidity/g203
*662 u_humidity/g204
*663 u_humidity/g205
*664 u_humidity/g206
*665 u_humidity/g207
*666 u_lum_ctrl/led_brightness_reg\[4\]
*667 u_lum_ctrl/led_brightness_reg\[6\]
*668 u_lum_ctrl/led_brightness_reg\[7\]
*669 u_lum_ctrl/led_brightness_reg\[0\]
*670 u_lum_ctrl/led_brightness_reg\[2\]
*671 u_lum_ctrl/led_brightness_reg\[5\]
*672 u_lum_ctrl/led_brightness_reg\[3\]
*673 u_lum_ctrl/led_brightness_reg\[1\]
*674 u_lum_ctrl/g95
*675 u_lum_ctrl/g96
*676 u_lum_ctrl/g97
*677 u_lum_ctrl/g98
*678 u_lum_ctrl/g99
*679 u_lum_ctrl/g100
*680 u_lum_ctrl/g101
*681 u_lum_ctrl/g102
*682 u_temp_ctrl/cooler_on_reg
*683 u_temp_ctrl/heater_on_reg
*684 u_temp_ctrl/g1630
*685 u_temp_ctrl/g1631
*686 u_temp_ctrl/g1632
*687 u_temp_ctrl/g1633
*688 u_temp_ctrl/g1634
*689 u_temp_ctrl/g1635
*690 u_temp_ctrl/g1636
*691 u_temp_ctrl/g1637
*692 u_temp_ctrl/g1638
*693 u_temp_ctrl/g1639
*694 u_temp_ctrl/g1640
*695 u_temp_ctrl/g1641
*696 u_temp_ctrl/g1642
*697 u_temp_ctrl/g1643
*698 u_temp_ctrl/g1644
*699 u_temp_ctrl/g1645
*700 u_temp_ctrl/g1647
*701 u_temp_ctrl/g1648
*702 u_temp_ctrl/g1649
*703 u_temp_ctrl/g1650
*704 u_temp_ctrl/g1651
*705 u_temp_ctrl/g1653
*706 u_temp_ctrl/g1654
*707 u_temp_ctrl/g1655
*708 u_temp_ctrl/g1657
*709 u_temp_ctrl/g1659
*710 u_temp_ctrl/g1660
*711 u_temp_ctrl/g1661
*712 u_temp_ctrl/g1662
*713 u_temp_ctrl/g1663
*714 u_temp_ctrl/g1664
*715 u_temp_ctrl/g1665
*716 u_temp_ctrl/g1667
*717 u_temp_ctrl/g1668
*718 u_temp_ctrl/g1669
*719 u_temp_ctrl/g1670
*720 u_temp_ctrl/g1671
*721 u_temp_ctrl/g1672
*722 u_temp_ctrl/g1674
*723 u_temp_ctrl/g1675
*724 u_temp_ctrl/g1678
*725 u_temp_ctrl/g1679
*726 u_temp_ctrl/g1680
*727 u_temp_ctrl/g1681
*728 u_temp_ctrl/g1683
*729 u_temp_ctrl/g1684
*730 u_temp_ctrl/g1685
*731 u_temp_ctrl/g1689
*732 u_temp_ctrl/g1690
*733 u_temp_ctrl/g1691
*734 u_temp_ctrl/g1692
*735 u_temp_ctrl/g1694
*736 u_temp_ctrl/g1695
*737 u_temp_ctrl/g1697
*738 u_temp_ctrl/g1698
*739 u_temp_ctrl/g1700
*740 u_temp_ctrl/g1703
*741 u_temp_ctrl/g1704
*742 u_temp_ctrl/g1705
*743 u_temp_ctrl/g1706
*744 u_temp_ctrl/g1707
*745 u_temp_ctrl/g1709
*746 u_temp_ctrl/g1710
*747 u_temp_ctrl/g1711
*748 u_temp_ctrl/g1712
*749 u_temp_ctrl/g1713
*750 u_temp_ctrl/g1714
*751 u_temp_ctrl/g1715
*752 u_temp_ctrl/g1716
*753 u_temp_ctrl/g1717
*754 u_temp_ctrl/g1718
*755 u_temp_ctrl/g1719
*756 u_temp_ctrl/g1720
*757 u_temp_ctrl/g1721
*758 u_temp_ctrl/g1723
*759 u_temp_ctrl/g1724
*760 u_temp_ctrl/g1725
*761 u_temp_ctrl/g1726
*762 u_temp_ctrl/g1728
*763 u_temp_ctrl/g1729
*764 u_temp_ctrl/g1736
*765 u_temp_ctrl/g1737
*766 u_temp_ctrl/g1738
*767 u_temp_ctrl/g1739
*768 u_temp_ctrl/g1740
*769 u_temp_ctrl/g1741
*770 u_temp_ctrl/g1742
*771 u_temp_ctrl/g1743
*772 u_temp_ctrl/g1744
*773 u_temp_ctrl/g1745
*774 u_visitor/count_reg\[6\]
*775 u_visitor/g1045
*776 u_visitor/count_reg\[5\]
*777 u_visitor/count_reg\[7\]
*778 u_visitor/g1048
*779 u_visitor/g1049
*780 u_visitor/g1050
*781 u_visitor/count_reg\[4\]
*782 u_visitor/g1052
*783 u_visitor/g1053
*784 u_visitor/g1054
*785 u_visitor/count_reg\[1\]
*786 u_visitor/count_reg\[2\]
*787 u_visitor/g1057
*788 u_visitor/count_reg\[3\]
*789 u_visitor/g1059
*790 u_visitor/count_reg\[0\]
*791 u_visitor/g1061
*792 u_visitor/g1062
*793 u_visitor/g1063
*794 u_visitor/g1064
*795 u_visitor/g1065
*796 u_visitor/g1066
*797 u_visitor/g1067
*798 u_visitor/g1068
*799 u_visitor/g1069
*800 u_visitor/g1072
*801 u_visitor/g1073
*802 u_visitor/g1074
*803 u_visitor/g1075
*804 u_visitor/g1076
*805 u_visitor/g1077
*806 u_visitor/g1078
*807 u_visitor/g1079
*808 u_visitor/g1080
*809 u_visitor/g1081
*810 u_visitor/g1082
*811 u_visitor/g1083
*812 u_visitor/g1084
*813 u_visitor/g1085
*814 u_visitor/g1086
*815 u_visitor/g1087
*816 u_visitor/g1088
*817 u_visitor/g1090
*818 u_visitor/g1091
*819 u_visitor/g1092
*820 u_visitor/g1093
*821 u_visitor/exit_prev_reg
*822 u_visitor/entry_prev_reg
*823 u_visitor/g1096
*824 u_visitor/g1098
*825 u_visitor/g1099
*826 u_visitor/g1100
*827 u_visitor/g1101
*828 u_visitor/g1102
*829 u_visitor/g1103
*830 u_visitor/g1104
*831 u_visitor/g1105
*832 u_visitor/g1109
*833 u_visitor/g2
*834 u_visitor/g1110
*835 u_water_ctrl/valve_close_reg
*836 u_water_ctrl/g77
*837 u_water_ctrl/g79
*838 u_water_ctrl/g81
*839 u_water_ctrl/pump_on_reg
*840 u_water_ctrl/g2
*841 u_window/window_state_reg\[0\]
*842 u_window/g360
*843 u_window/window_state_reg\[1\]
*844 u_window/g362
*845 u_window/g363
*846 u_window/g364
*847 u_window/g365
*848 u_window/g366
*849 u_window/g367
*850 u_window/g368
*851 u_window/g369
*852 u_window/g370
*853 u_window/g371
*854 u_window/g372
*855 u_window/g373
*856 water_valve_close_r_reg
*857 tv_on_r_reg
*858 music_on_r_reg
*859 g44
*860 g45
*861 g74
*862 g75
*863 g76
*864 g77
*865 led_brightness_r_reg\[2\]
*866 led_brightness_r_reg\[7\]
*867 led_brightness_r_reg\[3\]
*868 humidifier_on_r_reg
*869 dehumidifier_on_r_reg
*870 lights_on_r_reg
*871 led_brightness_r_reg\[1\]
*872 led_brightness_r_reg\[0\]
*873 led_brightness_r_reg\[6\]
*874 led_brightness_r_reg\[5\]
*875 led_brightness_r_reg\[4\]
*876 ac_on_r_reg
*877 fan_on_r_reg
*878 g46
*879 g47
*880 lock_status_r_reg\[0\]
*881 lock_status_r_reg\[1\]
*882 door_locked_r_reg
*883 g72
*884 g73
*885 g48
*886 volume_level_r_reg\[2\]
*887 volume_level_r_reg\[3\]
*888 volume_level_r_reg\[1\]
*889 volume_level_r_reg\[0\]
*890 g49
*891 g50
*892 g51
*893 g70
*894 g71
*895 water_pump_on_r_reg
*896 pin_input_r_reg\[3\]
*897 ac_cmd_r_reg
*898 visitor_count_r_reg\[1\]
*899 visitor_count_r_reg\[5\]
*900 visitor_count_r_reg\[4\]
*901 visitor_count_r_reg\[2\]
*902 visitor_count_r_reg\[3\]
*903 window_state_r_reg\[1\]
*904 visitor_count_r_reg\[0\]
*905 window_state_r_reg\[0\]
*906 visitor_count_r_reg\[7\]
*907 visitor_count_r_reg\[6\]
*908 window_manual_open_r_reg
*909 motion_sensor_r_reg
*910 temp_sensor_r_reg\[0\]
*911 temp_sensor_r_reg\[1\]
*912 temp_sensor_r_reg\[2\]
*913 temp_sensor_r_reg\[3\]
*914 temp_sensor_r_reg\[4\]
*915 temp_sensor_r_reg\[5\]
*916 pin_input_r_reg\[0\]
*917 temp_sensor_r_reg\[7\]
*918 temp_setpoint_r_reg\[7\]
*919 temp_setpoint_r_reg\[0\]
*920 temp_setpoint_r_reg\[2\]
*921 temp_setpoint_r_reg\[3\]
*922 temp_setpoint_r_reg\[4\]
*923 temp_setpoint_r_reg\[6\]
*924 window_sensor_r_reg
*925 window_auto_mode_r_reg
*926 alarm_arm_r_reg
*927 door_sensor_r_reg
*928 entry_sensor_r_reg
*929 exit_sensor_r_reg
*930 humidity_sensor_r_reg\[3\]
*931 pin_input_r_reg\[2\]
*932 pin_input_r_reg\[1\]
*933 heater_on_r_reg
*934 volume_cmd_r_reg\[0\]
*935 volume_cmd_r_reg\[1\]
*936 door_unlock_cmd_r_reg
*937 window_manual_close_r_reg
*938 volume_cmd_r_reg\[2\]
*939 door_lock_cmd_r_reg
*940 humidity_sensor_r_reg\[6\]
*941 light_cmd_r_reg
*942 humidity_sensor_r_reg\[0\]
*943 volume_cmd_r_reg\[3\]
*944 temp_setpoint_r_reg\[1\]
*945 temp_setpoint_r_reg\[5\]
*946 water_level_r_reg\[0\]
*947 temp_sensor_r_reg\[6\]
*948 fan_cmd_r_reg
*949 humidity_sensor_r_reg\[1\]
*950 humidity_sensor_r_reg\[2\]
*951 humidity_sensor_r_reg\[4\]
*952 humidity_sensor_r_reg\[5\]
*953 humidity_sensor_r_reg\[7\]
*954 music_on_cmd_r_reg
*955 tv_on_cmd_r_reg
*956 water_level_r_reg\[3\]
*957 water_level_r_reg\[1\]
*958 water_level_r_reg\[2\]
*959 burglar_alarm_out_r_reg
*960 light_sensor_r_reg\[5\]
*961 light_sensor_r_reg\[6\]
*962 light_sensor_r_reg\[4\]
*963 light_sensor_r_reg\[3\]
*964 cooler_on_r_reg
*965 light_sensor_r_reg\[1\]
*966 light_sensor_r_reg\[2\]
*967 light_sensor_r_reg\[7\]
*968 light_sensor_r_reg\[0\]


*PORTS

*7 I *C 96.57 0
*8 I *C 96.57 3.925
*28 I *C 96.57 35.345
*29 I *C 96.57 31.415
*30 I *C 96.57 27.49
*31 I *C 96.57 23.56
*32 I *C 96.57 19.635
*33 I *C 96.57 15.71
*34 I *C 96.57 11.78
*35 I *C 96.57 7.855
*36 I *C 96.57 66.76
*37 I *C 96.57 62.83
*38 I *C 96.57 58.905
*39 I *C 96.57 54.98
*40 I *C 96.57 51.05
*41 I *C 96.57 47.125
*42 I *C 96.57 43.195
*43 I *C 96.57 39.27
*60 I *C 96.57 82.465
*61 I *C 96.57 78.54
*62 I *C 96.57 74.615
*63 I *C 96.57 70.685
*44 I *C 24.14 0
*45 I *C 20.69 0
*46 I *C 17.24 0
*47 I *C 13.795 0
*48 I *C 10.345 0
*49 I *C 6.895 0
*50 I *C 3.45 0
*51 I *C 0 0
*9 I *C 55.175 0
*10 I *C 58.625 0
*11 I *C 62.075 0
*12 I *C 65.52 0
*13 I *C 0 0
*14 I *C 0 3.365
*15 I *C 68.97 0
*16 I *C 72.42 0
*17 I *C 75.865 0
*18 I *C 79.315 0
*19 I *C 82.765 0
*64 I *C 96.56 0
*65 I *C 93.11 0
*66 I *C 89.66 0
*67 I *C 86.21 0
*20 I *C 0 6.73
*21 I *C 0 10.1
*22 I *C 0 13.465
*23 I *C 0 16.83
*24 I *C 0 20.195
*68 I *C 0 33.66
*69 I *C 0 30.295
*70 I *C 0 26.93
*71 I *C 0 23.56
*52 I *C 51.725 0
*53 I *C 48.28 0
*54 I *C 44.83 0
*55 I *C 41.38 0
*56 I *C 37.935 0
*57 I *C 34.485 0
*58 I *C 31.035 0
*59 I *C 27.59 0
*72 O *C 0 94.25
*73 O *C 3.33 94.25
*74 O *C 6.66 94.25
*75 O *C 9.99 94.25
*87 O *C 0 90.88
*88 O *C 0 87.515
*89 O *C 0 84.15
*90 O *C 0 80.785
*91 O *C 0 77.42
*92 O *C 0 74.05
*93 O *C 0 70.685
*94 O *C 0 67.32
*76 O *C 13.32 94.25
*95 O *C 39.96 94.25
*96 O *C 36.63 94.25
*97 O *C 33.3 94.25
*98 O *C 29.97 94.25
*99 O *C 26.64 94.25
*100 O *C 23.31 94.25
*101 O *C 19.98 94.25
*102 O *C 16.65 94.25
*522 O *C 46.62 94.25
*111 O *C 43.29 94.25
*77 O *C 49.95 94.25
*78 O *C 53.28 94.25
*114 O *C 66.6 94.25
*115 O *C 63.27 94.25
*116 O *C 59.94 94.25
*117 O *C 56.61 94.25
*79 O *C 69.93 94.25
*80 O *C 73.26 94.25
*81 O *C 76.59 94.25
*82 O *C 79.92 94.25
*112 O *C 86.58 94.25
*113 O *C 83.25 94.25
*83 O *C 89.91 94.25
*84 O *C 93.24 94.25
*103 O *C 0 63.955
*104 O *C 0 60.59
*105 O *C 0 57.22
*106 O *C 0 53.855
*107 O *C 0 50.49
*108 O *C 0 47.125
*109 O *C 0 43.76
*110 O *C 0 40.39
*25 I *C 96.57 86.395
*26 I *C 96.57 94.25
*85 O *C 0 94.25
*27 I *C 0 37.025
*86 O *C 96.57 94.25


*D_NET *1 0.00508467

*CONN
*I *589:A0 I *C 46.255 52.635 *L 0.00158 *D AOI21XL
*I *592:B I *C 43.645 52.635 *L 0.00284 *D NAND2BX1
*I *627:A0 I *C 43.065 49.735 *L 0.00261 *D AOI31X1
*I *590:A I *C 45.095 49.445 *L 0.00162 *D NOR2XL
*I *646:AN I *C 45.095 44.225 *L 0.00178 *D NAND2BX1
*I *584:Q O *C 38.715 58.145 *L 0 *D SDFFRHQX1
*I *781:SI I *C 40.165 62.785 *L 0.00272 *D SDFFRHQX2

*CAP
1 *1:1 2.3884e-05
2 *1:2 2.3884e-05
3 *1:3 0.000118248
4 *1:4 0.000118248
5 *1:5 2.3884e-05
6 *1:6 0.000258253
7 *1:7 9.45981e-05
8 *1:8 0.000234369
9 *1:9 9.45981e-05
10 *1:10 0.000160868
11 *1:12 2.29811e-05
12 *1:13 0.000344716
13 *1:15 2.3358e-05
14 *1:17 0.00020683
15 *1:18 0.000443802
16 *1:20 0.000520976
17 *1:22 0.000420444
18 *1:23 0.000520976
19 *1:25 4.72991e-05
20 *1:26 4.72991e-05
21 *1:27 0.000167188
22 *1:28 0.000549331
23 *1:29 0.000382143
24 *1:30 9.45981e-05
25 *1:31 2.36495e-05
26 *1:32 9.45981e-05
27 *1:33 2.36495e-05

*RES
1 *1:35 *781:SI 1.4
2 *1:34 *584:Q 1.4
3 *1:33 *1:35 1.4
4 *1:32 *1:34 1.4
5 *1:31 *1:33 0.124283
6 *1:30 *1:32 0.497132
7 *1:29 *1:31 1.4
8 *1:28 *1:30 1.4
9 *1:28 *1:29 1.98852
10 *1:27 *1:28 0.869979
11 *1:26 *1:27 1.4
12 *1:25 *1:26 0.248566
13 *1:23 *1:25 1.4
14 *1:22 *646:AN 1.4
15 *1:20 *1:23 2.73427
16 *1:18 *1:22 2.2372
17 *1:18 *590:A 1.4
18 *1:17 *1:20 1.4
19 *1:16 *627:A0 1.4
20 *1:15 *1:18 0.124289
21 *1:13 *1:17 1.1186
22 *1:13 *1:16 1.4
23 *1:12 *1:15 1.4
24 *1:11 *592:B 1.4
25 *1:10 *1:13 0.745732
26 *1:10 *1:12 0.124289
27 *1:9 *1:11 1.4
28 *1:8 *1:10 1.4
29 *1:7 *1:9 0.497132
30 *1:6 *1:8 1.24288
31 *1:6 *1:7 1.4
32 *1:5 *1:6 0.124283
33 *1:4 *1:5 1.4
34 *1:3 *1:4 0.621415
35 *1:2 *1:3 1.4
36 *1:1 *1:2 0.124283
37 *589:A0 *1:1 1.4
*END

*D_NET *2 0.00275208

*CONN
*I *659:SI I *C 59.885 60.175 *L 0.00276 *D SDFFRHQX1
*I *639:B I *C 60.465 52.345 *L 0.00167 *D NAND2XL
*I *633:B I *C 65.395 52.345 *L 0.00349 *D XNOR2XL
*I *600:Q O *C 67.135 54.375 *L 0 *D SDFFRHQX1

*CAP
1 *2:1 0.000623372
2 *2:2 0.000623372
3 *2:3 4.40119e-05
4 *2:4 0.000418113
5 *2:5 0.000374101
6 *2:6 2.27935e-05
7 *2:7 2.27935e-05
8 *2:8 2.27935e-05
9 *2:9 0.000178499
10 *2:11 0.000155705
11 *2:13 0.000133262
12 *2:14 0.000133262

*RES
1 *2:15 *600:Q 1.4
2 *2:14 *2:15 1.4
3 *2:13 *2:14 0.745698
4 *2:11 *2:13 1.4
5 *2:9 *633:B 1.4
6 *2:9 *2:11 0.869979
7 *2:8 *639:B 1.4
8 *2:7 *2:9 0.124283
9 *2:6 *2:8 0.124283
10 *2:5 *2:7 1.4
11 *2:4 *2:6 1.4
12 *2:4 *2:5 2.11291
13 *2:3 *2:4 0.248578
14 *2:2 *2:3 1.4
15 *2:1 *2:2 3.47991
16 *659:SI *2:1 1.4
*END

*D_NET *3 0.00255212

*CONN
*I *639:A I *C 61.045 52.345 *L 0.00157 *D NAND2XL
*I *633:A I *C 63.945 52.3925 *L 0.00178 *D XNOR2XL
*I *608:A I *C 62.495 49.445 *L 0.00162 *D NOR2XL
*I *607:Q O *C 64.815 47.705 *L 0 *D SDFFRHQX1
*I *683:SI I *C 63.365 44.225 *L 0.00161 *D SDFFRXL

*CAP
1 *3:1 4.44873e-05
2 *3:2 4.44873e-05
3 *3:3 6.6631e-05
4 *3:4 6.6631e-05
5 *3:5 4.44873e-05
6 *3:6 0.000277372
7 *3:7 0.000155472
8 *3:8 0.000372945
9 *3:9 0.000155472
10 *3:10 4.40119e-05
11 *3:11 0.000140061
12 *3:12 3.83511e-06
13 *3:13 4.40119e-05
14 *3:14 0.000154042
15 *3:15 3.83511e-06
16 *3:17 0.000220059
17 *3:20 6.60178e-05
18 *3:21 0.000280121
19 *3:23 0.000280121
20 *3:25 4.40119e-05
21 *3:26 4.40119e-05

*RES
1 *3:27 *683:SI 1.4
2 *3:26 *3:27 1.4
3 *3:25 *3:26 0.248578
4 *3:23 *3:25 1.4
5 *3:22 *607:Q 1.4
6 *3:21 *3:23 1.49139
7 *3:20 *3:22 1.4
8 *3:17 *3:21 1.4
9 *3:17 *3:20 0.372866
10 *3:16 *608:A 1.4
11 *3:15 *633:A 1.4
12 *3:14 *3:17 0.870021
13 *3:13 *3:16 1.4
14 *3:12 *3:15 0.021428
15 *3:11 *3:14 1.4
16 *3:10 *3:13 0.248578
17 *3:9 *3:12 1.4
18 *3:8 *3:11 0.745696
19 *3:8 *3:10 1.4
20 *3:7 *3:9 0.869981
21 *3:6 *3:8 1.24283
22 *3:6 *3:7 1.4
23 *3:5 *3:6 0.248565
24 *3:4 *3:5 1.4
25 *3:3 *3:4 0.372849
26 *3:2 *3:3 1.4
27 *3:1 *3:2 0.248565
28 *639:A *3:1 1.4
*END

*D_NET *4 0.000276247

*CONN
*I *526:SI I *C 51.185 41.905 *L 0.00276 *D SDFFRHQX1
*I *682:QN O *C 52.345 42.485 *L 0 *D SDFFRXL

*CAP
1 *4:2 9.14367e-05
2 *4:3 9.14367e-05
3 *4:4 4.66869e-05
4 *4:5 4.66869e-05

*RES
1 *4:5 *682:QN 1.4
2 *4:4 *4:5 0.248565
3 *4:3 *4:4 1.4
4 *4:2 *4:3 0.497155
5 *4:1 *4:2 1.4
6 *526:SI *4:1 1.4
*END

*D_NET *5 0.00398212

*CONN
*I *564:A1 I *C 52.345 23.635 *L 0.00278 *D OAI211X1
*I *568:B I *C 56.405 26.245 *L 0.00167 *D NAND2XL
*I *543:A I *C 62.495 26.245 *L 0.0017 *D MXI2XL
*I *571:A I *C 62.495 28.565 *L 0.00273 *D CLKINVX1
*I *532:Q O *C 65.975 23.055 *L 0 *D SDFFRHQX1
*I *843:SI I *C 65.395 21.025 *L 0.00276 *D SDFFRHQX1

*CAP
1 *5:2 6.29906e-05
2 *5:3 6.29906e-05
3 *5:4 0.000194634
4 *5:5 0.000194634
5 *5:6 0.000376539
6 *5:7 0.000794652
7 *5:8 0.000462125
8 *5:10 4.40119e-05
9 *5:11 0.000128953
10 *5:13 0.000186747
11 *5:14 0.000128953
12 *5:15 0.000186747
13 *5:17 0.000282783
14 *5:19 0.000282783
15 *5:20 0.00010662
16 *5:21 0.000255887
17 *5:23 0.000149268
18 *5:24 4.03976e-05
19 *5:25 4.03976e-05

*RES
1 *5:26 *843:SI 1.4
2 *5:25 *5:26 1.4
3 *5:24 *5:25 0.248577
4 *5:23 *5:24 1.4
5 *5:21 *5:23 0.869979
6 *5:21 *532:Q 1.4
7 *5:20 *5:21 0.621413
8 *5:19 *5:20 1.4
9 *5:17 *5:19 1.74004
10 *5:15 *571:A 1.4
11 *5:14 *5:17 1.4
12 *5:13 *543:A 1.4
13 *5:13 *5:15 0.994261
14 *5:11 *5:14 0.745696
15 *5:10 *5:13 1.4
16 *5:9 *568:B 1.4
17 *5:8 *5:11 1.4
18 *5:8 *5:10 0.248578
19 *5:7 *5:9 1.4
20 *5:7 *5:8 2.36149
21 *5:6 *5:7 2.11291
22 *5:5 *5:6 1.4
23 *5:4 *5:5 1.1186
24 *5:3 *5:4 1.4
25 *5:2 *5:3 0.372865
26 *5:1 *5:2 1.4
27 *564:A1 *5:1 1.4
*END

*D_NET *6 0.00337082

*CONN
*I *605:A0 I *C 38.715 31.755 *L 0.00155 *D AO21X1
*I *620:B0 I *C 39.295 33.785 *L 0.00278 *D AOI211X1
*I *636:A I *C 39.585 31.465 *L 0.00157 *D NAND2XL
*I *631:A0 I *C 41.325 31.465 *L 0.00259 *D AOI32X1
*I *841:SI I *C 39.005 23.635 *L 0.00276 *D SDFFRHQX1
*I *643:A I *C 44.235 31.5275 *L 0.00163 *D INVXL
*I *598:Q O *C 43.355 28.275 *L 0 *D SDFFRHQX1

*CAP
1 *6:2 4.59622e-05
2 *6:3 4.59622e-05
3 *6:4 0.000186864
4 *6:5 0.000163506
5 *6:6 2.3358e-05
6 *6:8 4.59622e-05
7 *6:9 0.000160868
8 *6:10 2.29811e-05
9 *6:11 0.000367697
10 *6:13 0.000615077
11 *6:14 0.000275773
12 *6:17 0.000615077
13 *6:18 4.59622e-05
14 *6:19 5.23541e-06
15 *6:22 0.000256938
16 *6:23 6.04086e-06
17 *6:24 0.000256938
18 *6:25 8.05447e-07
19 *6:26 0.000114905
20 *6:28 0.000114905

*RES
1 *6:29 *598:Q 1.4
2 *6:28 *6:29 1.4
3 *6:26 *6:28 0.621444
4 *6:25 *643:A 1.4
5 *6:24 *6:26 1.4
6 *6:23 *6:25 0.00428582
7 *6:22 *6:24 1.36718
8 *6:19 *6:23 0.0278578
9 *6:18 *6:22 1.4
10 *6:17 *841:SI 1.4
11 *6:15 *631:A0 1.4
12 *6:14 *6:19 1.4
13 *6:14 *6:18 0.248577
14 *6:13 *6:17 3.35579
15 *6:12 *636:A 1.4
16 *6:11 *6:15 1.4
17 *6:11 *6:14 1.24289
18 *6:10 *6:13 1.4
19 *6:9 *6:12 1.4
20 *6:9 *6:11 0.745732
21 *6:8 *6:10 0.124289
22 *6:8 *6:9 0.124289
23 *6:6 *6:8 1.4
24 *6:5 *620:B0 1.4
25 *6:4 *6:6 0.124289
26 *6:4 *6:5 0.870021
27 *6:3 *6:4 1.4
28 *6:2 *6:3 0.248577
29 *6:1 *6:2 1.4
30 *605:A0 *6:1 1.4
*END

*D_NET *7 0.138163

*CONN
*I *889:CK I *C 56.695 88.885 *L 0.00174 *D SDFFRHQX8
*I *886:CK I *C 64.525 86.275 *L 0.00174 *D SDFFRHQX8
*I *835:CK I *C 57.855 83.665 *L 0.00176 *D SDFFRHQX1
*I *887:CK I *C 71.485 83.665 *L 0.00174 *D SDFFRHQX8
*I *880:CK I *C 71.775 81.055 *L 0.00174 *D SDFFRHQX8
*I *888:CK I *C 72.065 88.885 *L 0.00174 *D SDFFRHQX8
*I *650:CK I *C 72.645 78.445 *L 0.00166 *D SDFFSHQX1
*I *652:CK I *C 77.865 75.835 *L 0.00176 *D SDFFRHQX1
*I *958:CK I *C 79.025 80.765 *L 0.00172 *D SDFFRHQX4
*I *957:CK I *C 79.025 75.545 *L 0.00172 *D SDFFRHQX4
*I *956:CK I *C 79.605 83.955 *L 0.00172 *D SDFFRHQX4
*I *881:CK I *C 84.245 86.275 *L 0.00174 *D SDFFRHQX8
*I *868:CK I *C 82.795 73.225 *L 0.00174 *D SDFFRHQX8
*I *869:CK I *C 84.825 68.005 *L 0.00174 *D SDFFRHQX8
*I *946:CK I *C 90.335 70.325 *L 0.00172 *D SDFFRHQX4
*I *918:CK I *C 79.025 65.105 *L 0.00172 *D SDFFRHQX4
*I *923:CK I *C 79.025 63.075 *L 0.00172 *D SDFFRHQX4
*I *649:CK I *C 71.485 68.005 *L 0.00166 *D SDFFSHQX1
*I *920:CK I *C 80.185 49.445 *L 0.00172 *D SDFFRHQX4
*I *658:CK I *C 77.575 62.785 *L 0.00176 *D SDFFRHQX1
*I *651:CK I *C 69.745 70.615 *L 0.00176 *D SDFFRHQX1
*I *922:CK I *C 79.895 54.665 *L 0.00172 *D SDFFRHQX4
*I *576:CK I *C 68.295 70.615 *L 0.00176 *D SDFFRHQX1
*I *917:CK I *C 80.765 39.005 *L 0.00172 *D SDFFRHQX4
*I *947:CK I *C 79.895 36.975 *L 0.00172 *D SDFFRHQX4
*I *839:CK I *C 64.525 75.835 *L 0.00176 *D SDFFRHQX1
*I *577:CK I *C 60.755 73.225 *L 0.00176 *D SDFFRHQX1
*I *945:CK I *C 90.625 57.855 *L 0.00172 *D SDFFRHQX4
*I *919:CK I *C 90.915 33.785 *L 0.00172 *D SDFFRHQX4
*I *944:CK I *C 91.495 44.225 *L 0.00172 *D SDFFRHQX4
*I *921:CK I *C 90.915 52.635 *L 0.00172 *D SDFFRHQX4
*I *903:CK I *C 57.855 68.005 *L 0.00174 *D SDFFRHQX8
*I *882:CK I *C 55.535 65.685 *L 0.0017 *D SDFFRX1
*I *858:CK I *C 63.655 65.395 *L 0.00174 *D SDFFRHQX8
*I *857:CK I *C 51.765 70.615 *L 0.00174 *D SDFFRHQX8
*I *776:CK I *C 48.865 68.005 *L 0.00175 *D SDFFRHQX2
*I *777:CK I *C 52.055 78.445 *L 0.00176 *D SDFFRHQX1
*I *895:CK I *C 50.315 81.345 *L 0.0017 *D SDFFRX1
*I *856:CK I *C 48.865 86.275 *L 0.00174 *D SDFFRHQX8
*I *575:CK I *C 50.025 62.785 *L 0.00176 *D SDFFRHQX1
*I *906:CK I *C 42.195 81.055 *L 0.00174 *D SDFFRHQX8
*I *774:CK I *C 43.645 75.835 *L 0.00175 *D SDFFRHQX2
*I *781:CK I *C 47.995 62.785 *L 0.00175 *D SDFFRHQX2
*I *588:CK I *C 50.895 57.565 *L 0.00176 *D SDFFRHQX1
*I *647:CK I *C 60.465 57.565 *L 0.00176 *D SDFFRHQX1
*I *601:CK I *C 48.285 54.955 *L 0.00176 *D SDFFRHQX1
*I *907:CK I *C 40.165 83.665 *L 0.00174 *D SDFFRHQX8
*I *593:CK I *C 60.755 49.735 *L 0.00176 *D SDFFRHQX1
*I *607:CK I *C 64.235 47.125 *L 0.00176 *D SDFFRHQX1
*I *683:CK I *C 55.825 44.805 *L 0.00177 *D SDFFRXL
*I *580:CK I *C 41.325 54.955 *L 0.00176 *D SDFFRHQX1
*I *600:CK I *C 66.555 54.955 *L 0.00176 *D SDFFRHQX1
*I *899:CK I *C 36.395 86.275 *L 0.00174 *D SDFFRHQX8
*I *821:CK I *C 36.105 52.345 *L 0.00176 *D SDFFRHQX1
*I *900:CK I *C 34.945 88.885 *L 0.00174 *D SDFFRHQX8
*I *905:CK I *C 41.905 60.175 *L 0.00174 *D SDFFRHQX8
*I *584:CK I *C 39.295 57.565 *L 0.00176 *D SDFFRHQX1
*I *682:CK I *C 54.085 41.615 *L 0.00177 *D SDFFRXL
*I *822:CK I *C 31.175 54.955 *L 0.00176 *D SDFFRHQX1
*I *659:CK I *C 67.715 60.175 *L 0.00176 *D SDFFRHQX1
*I *579:CK I *C 31.175 49.735 *L 0.00176 *D SDFFRHQX1
*I *526:CK I *C 43.355 41.905 *L 0.00176 *D SDFFRHQX1
*I *528:CK I *C 51.765 39.295 *L 0.00176 *D SDFFRHQX1
*I *648:CK I *C 70.035 57.565 *L 0.00176 *D SDFFRHQX1
*I *615:CK I *C 40.455 41.905 *L 0.00176 *D SDFFRHQX1
*I *788:CK I *C 28.565 60.175 *L 0.00175 *D SDFFRHQX2
*I *603:CK I *C 38.715 44.515 *L 0.00176 *D SDFFRHQX1
*I *602:CK I *C 27.115 47.125 *L 0.00176 *D SDFFRHQX1
*I *667:CK I *C 22.475 49.735 *L 0.00176 *D SDFFRHQX1
*I *933:CK I *C 20.155 44.805 *L 0.0017 *D SDFFRX1
*I *599:CK I *C 34.075 39.295 *L 0.00176 *D SDFFRHQX1
*I *964:CK I *C 27.405 41.615 *L 0.0017 *D SDFFRX1
*I *959:CK I *C 17.545 46.835 *L 0.0017 *D SDFFRX1
*I *870:CK I *C 23.925 39.585 *L 0.0017 *D SDFFRX1
*I *877:CK I *C 16.385 44.805 *L 0.0017 *D SDFFRX1
*I *668:CK I *C 17.835 52.345 *L 0.00176 *D SDFFRHQX1
*I *673:CK I *C 14.065 52.345 *L 0.00176 *D SDFFRHQX1
*I *525:CK I *C 25.085 36.685 *L 0.00176 *D SDFFRHQX1
*I *666:CK I *C 12.035 54.955 *L 0.00176 *D SDFFRHQX1
*I *928:CK I *C 30.015 31.755 *L 0.00172 *D SDFFRHQX4
*I *523:CK I *C 13.775 39.295 *L 0.00176 *D SDFFRHQX1
*I *672:CK I *C 16.095 57.565 *L 0.00176 *D SDFFRHQX1
*I *841:CK I *C 31.175 23.635 *L 0.00176 *D SDFFRHQX1
*I *929:CK I *C 29.725 23.345 *L 0.00172 *D SDFFRHQX4
*I *872:CK I *C 11.165 60.175 *L 0.00174 *D SDFFRHQX8
*I *669:CK I *C 9.135 41.905 *L 0.00176 *D SDFFRHQX1
*I *871:CK I *C 11.165 65.395 *L 0.00174 *D SDFFRHQX8
*I *876:CK I *C 6.815 46.835 *L 0.0017 *D SDFFRX1
*I *967:CK I *C 32.335 16.095 *L 0.00172 *D SDFFRHQX4
*I *939:CK I *C 22.475 21.315 *L 0.00172 *D SDFFRHQX4
*I *670:CK I *C 5.365 57.565 *L 0.00176 *D SDFFRHQX1
*I *546:CK I *C 34.655 26.245 *L 0.00176 *D SDFFRHQX1
*I *524:CK I *C 4.785 36.685 *L 0.00176 *D SDFFRHQX1
*I *931:CK I *C 4.495 31.755 *L 0.00172 *D SDFFRHQX4
*I *941:CK I *C 21.605 26.535 *L 0.00172 *D SDFFRHQX4
*I *865:CK I *C 12.615 68.005 *L 0.00174 *D SDFFRHQX8
*I *916:CK I *C 5.365 26.535 *L 0.00172 *D SDFFRHQX4
*I *897:CK I *C 4.495 18.125 *L 0.00172 *D SDFFRHQX4
*I *547:CK I *C 34.945 21.025 *L 0.00176 *D SDFFRHQX1
*I *786:CK I *C 20.155 68.005 *L 0.00175 *D SDFFRHQX2
*I *671:CK I *C 19.865 62.785 *L 0.00176 *D SDFFRHQX1
*I *966:CK I *C 5.075 10.875 *L 0.00172 *D SDFFRHQX4
*I *936:CK I *C 32.915 28.565 *L 0.00172 *D SDFFRHQX4
*I *961:CK I *C 29.725 12.905 *L 0.00172 *D SDFFRHQX4
*I *867:CK I *C 11.165 70.615 *L 0.00174 *D SDFFRHQX8
*I *549:CK I *C 41.035 23.635 *L 0.00176 *D SDFFRHQX1
*I *598:CK I *C 42.775 28.855 *L 0.00176 *D SDFFRHQX1
*I *960:CK I *C 29.435 10.875 *L 0.00172 *D SDFFRHQX4
*I *965:CK I *C 16.385 16.095 *L 0.00172 *D SDFFRHQX4
*I *874:CK I *C 10.295 75.835 *L 0.00174 *D SDFFRHQX8
*I *790:CK I *C 18.415 75.545 *L 0.00172 *D SDFFRHQX4
*I *875:CK I *C 11.745 73.225 *L 0.00174 *D SDFFRHQX8
*I *932:CK I *C 16.675 28.565 *L 0.00172 *D SDFFRHQX4
*I *930:CK I *C 30.595 10.875 *L 0.00172 *D SDFFRHQX4
*I *896:CK I *C 16.675 33.785 *L 0.00172 *D SDFFRHQX4
*I *948:CK I *C 15.805 21.315 *L 0.00172 *D SDFFRHQX4
*I *537:CK I *C 47.995 21.025 *L 0.00176 *D SDFFRHQX1
*I *968:CK I *C 16.675 12.905 *L 0.00172 *D SDFFRHQX4
*I *529:CK I *C 44.225 28.855 *L 0.00176 *D SDFFRHQX1
*I *963:CK I *C 16.965 5.655 *L 0.00172 *D SDFFRHQX4
*I *901:CK I *C 24.795 78.445 *L 0.00174 *D SDFFRHQX8
*I *942:CK I *C 36.685 7.685 *L 0.00172 *D SDFFRHQX4
*I *949:CK I *C 23.925 5.655 *L 0.00172 *D SDFFRHQX4
*I *785:CK I *C 26.535 73.225 *L 0.00175 *D SDFFRHQX2
*I *962:CK I *C 23.925 7.685 *L 0.00172 *D SDFFRHQX4
*I *898:CK I *C 24.795 83.665 *L 0.00174 *D SDFFRHQX8
*I *953:CK I *C 43.355 12.905 *L 0.00172 *D SDFFRHQX4
*I *902:CK I *C 28.275 81.055 *L 0.00174 *D SDFFRHQX8
*I *950:CK I *C 41.905 12.905 *L 0.00172 *D SDFFRHQX4
*I *873:CK I *C 12.615 81.055 *L 0.00174 *D SDFFRHQX8
*I *904:CK I *C 20.735 86.275 *L 0.00174 *D SDFFRHQX8
*I *866:CK I *C 10.875 83.665 *L 0.00174 *D SDFFRHQX8
*I *952:CK I *C 48.865 5.655 *L 0.00172 *D SDFFRHQX4
*I *951:CK I *C 49.155 7.685 *L 0.00172 *D SDFFRHQX4
*I *927:CK I *C 51.765 7.685 *L 0.00172 *D SDFFRHQX4
*I *940:CK I *C 54.085 10.875 *L 0.00172 *D SDFFRHQX4
*I *538:CK I *C 51.185 15.805 *L 0.00176 *D SDFFRHQX1
*I *924:CK I *C 56.695 12.905 *L 0.00172 *D SDFFRHQX4
*I *843:CK I *C 57.565 21.025 *L 0.00176 *D SDFFRHQX1
*I *532:CK I *C 65.395 23.635 *L 0.00176 *D SDFFRHQX1
*I *955:CK I *C 65.685 18.125 *L 0.00172 *D SDFFRHQX4
*I *914:CK I *C 66.555 23.345 *L 0.00172 *D SDFFRHQX4
*I *915:CK I *C 65.685 26.535 *L 0.00172 *D SDFFRHQX4
*I *934:CK I *C 70.615 12.905 *L 0.00172 *D SDFFRHQX4
*I *534:CK I *C 64.815 31.465 *L 0.00176 *D SDFFRHQX1
*I *908:CK I *C 65.105 7.685 *L 0.00172 *D SDFFRHQX4
*I *909:CK I *C 62.205 5.655 *L 0.00172 *D SDFFRHQX4
*I *926:CK I *C 72.935 10.875 *L 0.00172 *D SDFFRHQX4
*I *935:CK I *C 77.575 10.875 *L 0.00172 *D SDFFRHQX4
*I *910:CK I *C 78.445 16.095 *L 0.00172 *D SDFFRHQX4
*I *943:CK I *C 77.865 7.685 *L 0.00172 *D SDFFRHQX4
*I *937:CK I *C 76.705 16.095 *L 0.00172 *D SDFFRHQX4
*I *925:CK I *C 75.255 5.655 *L 0.00172 *D SDFFRHQX4
*I *913:CK I *C 78.735 23.345 *L 0.00172 *D SDFFRHQX4
*I *938:CK I *C 88.595 5.655 *L 0.00172 *D SDFFRHQX4
*I *912:CK I *C 79.025 21.315 *L 0.00172 *D SDFFRHQX4
*I *954:CK I *C 78.155 21.315 *L 0.00172 *D SDFFRHQX4
*I *911:CK I *C 89.755 18.125 *L 0.00172 *D SDFFRHQX4
*P *7 I *C 96.57 0 *L 0

*CAP
1 *7:2 2.1362e-05
2 *7:3 2.1362e-05
3 *7:4 0.000189075
4 *7:5 0.000189075
5 *7:6 6.4086e-05
6 *7:7 0.000555412
7 *7:8 0.00100401
8 *7:9 0.000189075
9 *7:10 0.00053405
10 *7:12 0.000189075
11 *7:13 2.1362e-05
12 *7:14 0.000189075
13 *7:17 0.000168066
14 *7:18 0.000378149
15 *7:19 0.000168066
16 *7:21 0.000189075
17 *7:22 2.1362e-05
18 *7:23 2.1362e-05
19 *7:24 2.1362e-05
20 *7:25 0.000149534
21 *7:26 2.10083e-05
22 *7:27 0.000128172
23 *7:29 2.10083e-05
24 *7:30 0.000189075
25 *7:33 0.000210701
26 *7:34 6.4086e-05
27 *7:35 2.1626e-05
28 *7:36 6.4086e-05
29 *7:37 0.000333155
30 *7:39 0.000415937
31 *7:41 8.27825e-05
32 *7:42 0.000177949
33 *7:43 0.000153936
34 *7:44 0.000200193
35 *7:45 0.000340477
36 *7:47 2.22436e-05
37 *7:48 0.000186541
38 *7:50 8.27825e-05
39 *7:51 3.37696e-05
40 *7:52 0.000359798
41 *7:53 0.000303926
42 *7:54 0.000277015
43 *7:56 0.000270157
44 *7:58 0.000156648
45 *7:60 0.000135666
46 *7:62 0.00037204
47 *7:63 0.000135666
48 *7:64 1.97868e-05
49 *7:65 0.000215392
50 *7:67 1.97868e-05
51 *7:68 0.000118721
52 *7:70 0.00049467
53 *7:72 0.00037595
54 *7:73 0.000137067
55 *7:74 1.9581e-05
56 *7:75 0.000156648
57 *7:76 1.9581e-05
58 *7:78 1.9581e-05
59 *7:80 0.000395736
60 *7:81 0.000395736
61 *7:82 0.00019581
62 *7:83 1.9581e-05
63 *7:84 0.000293716
64 *7:85 0.00057141
65 *7:87 0.000137067
66 *7:88 0.00057141
67 *7:89 7.91473e-05
68 *7:90 3.91621e-05
69 *7:91 0.000222436
70 *7:92 7.91473e-05
71 *7:94 1.9581e-05
72 *7:95 0.000222436
73 *7:97 0.000587431
74 *7:98 0.000104993
75 *7:99 0.000133262
76 *7:100 0.00095312
77 *7:101 0.000104993
78 *7:102 0.000244314
79 *7:103 1.97868e-05
80 *7:104 0.00112074
81 *7:106 2.22436e-05
82 *7:107 0.000266524
83 *7:108 1.97868e-05
84 *7:110 0.000901867
85 *7:112 2.22436e-05
86 *7:113 2.22436e-05
87 *7:114 0.000155472
88 *7:116 4.0595e-05
89 *7:117 0.000167789
90 *7:119 2.22436e-05
91 *7:120 0.000200193
92 *7:122 4.0595e-05
93 *7:123 2.02975e-05
94 *7:124 2.09736e-05
95 *7:126 0.000200193
96 *7:128 2.02975e-05
97 *7:129 0.000710412
98 *7:130 0.000133262
99 *7:133 0.000730709
100 *7:134 0.000421996
101 *7:136 2.02975e-05
102 *7:137 0.000209736
103 *7:138 0.000177949
104 *7:139 0.000288734
105 *7:140 0.000545315
106 *7:141 0.000209736
107 *7:142 0.000177949
108 *7:143 2.22436e-05
109 *7:144 0.00115146
110 *7:145 4.0595e-05
111 *7:147 0.000422629
112 *7:148 0.000958606
113 *7:149 6.08925e-05
114 *7:150 4.0595e-05
115 *7:152 0.000467116
116 *7:153 0.000352459
117 *7:154 1.97868e-05
118 *7:155 6.08925e-05
119 *7:157 0.000222103
120 *7:158 6.67309e-05
121 *7:160 1.97868e-05
122 *7:163 0.000377575
123 *7:164 8.88413e-05
124 *7:168 0.000177683
125 *7:169 8.88413e-05
126 *7:172 0.000155705
127 *7:173 2.22103e-05
128 *7:174 0.000133462
129 *7:175 0.000155705
130 *7:176 0.000177949
131 *7:177 0.000133462
132 *7:178 0.000313103
133 *7:179 0.000177949
134 *7:180 0.000133262
135 *7:181 0.000313103
136 *7:183 0.000133262
137 *7:184 4.77679e-05
138 *7:186 7.16519e-05
139 *7:188 2.3884e-05
140 *7:190 2.36495e-05
141 *7:191 0.000236495
142 *7:192 0.00061953
143 *7:193 0.000212846
144 *7:194 0.000850291
145 *7:195 0.00023884
146 *7:196 0.00023076
147 *7:197 4.2457e-05
148 *7:198 0.000573215
149 *7:199 8.4914e-05
150 *7:200 4.2457e-05
151 *7:202 0.000334375
152 *7:203 0.000191056
153 *7:205 2.36495e-05
154 *7:206 2.09782e-05
155 *7:207 0.00042457
156 *7:209 2.36495e-05
157 *7:210 2.09782e-05
158 *7:211 0.000335652
159 *7:212 0.000318427
160 *7:213 9.55358e-05
161 *7:215 0.000335652
162 *7:216 4.19564e-05
163 *7:217 0.000143304
164 *7:219 0.000444263
165 *7:220 7.09486e-05
166 *7:221 0.000429911
167 *7:222 0.000169828
168 *7:223 0.000402307
169 *7:224 7.09486e-05
170 *7:225 9.45981e-05
171 *7:226 0.000406027
172 *7:227 0.00027597
173 *7:228 7.09486e-05
174 *7:230 9.45981e-05
175 *7:231 0.000141897
176 *7:232 2.3884e-05
177 *7:234 0.000106142
178 *7:235 7.09486e-05
179 *7:237 4.77679e-05
180 *7:238 0.000881314
181 *7:239 7.09486e-05
182 *7:241 0.000167826
183 *7:243 4.77679e-05
184 *7:244 0.000739417
185 *7:246 7.09486e-05
186 *7:247 0.000167826
187 *7:250 0.000609926
188 *7:252 0.000167188
189 *7:253 4.2457e-05
190 *7:255 0.000679957
191 *7:256 0.000191072
192 *7:257 0.000191056
193 *7:258 2.20059e-05
194 *7:259 7.00303e-05
195 *7:260 0.00049664
196 *7:261 2.3884e-05
197 *7:262 2.09782e-05
198 *7:263 0.000148599
199 *7:264 0.000286077
200 *7:265 0.000352095
201 *7:266 0.000567589
202 *7:268 2.09782e-05
203 *7:269 0.000209782
204 *7:270 0.000440119
205 *7:272 0.000352095
206 *7:273 0.00023884
207 *7:274 7.09486e-05
208 *7:276 0.000209782
209 *7:277 0.000176048
210 *7:278 0.000210091
211 *7:280 0.000326808
212 *7:281 0.00023884
213 *7:282 0.000191072
214 *7:283 0.000127371
215 *7:284 0.000409734
216 *7:285 0.000210091
217 *7:286 0.000606929
218 *7:287 0.00049664
219 *7:288 0.000167188
220 *7:289 2.3884e-05
221 *7:290 0.000233513
222 *7:291 0.000587683
223 *7:294 0.000280121
224 *7:295 0.000875032
225 *7:296 0.000212846
226 *7:299 0.000106142
227 *7:300 0.000177949
228 *7:302 0.000132036
229 *7:304 0.000402042
230 *7:305 4.72991e-05
231 *7:306 0.000165547
232 *7:308 0.000188804
233 *7:309 8.88413e-05
234 *7:310 0.000286565
235 *7:312 0.000210485
236 *7:313 2.36495e-05
237 *7:314 0.00023884
238 *7:315 2.3884e-05
239 *7:316 0.000188804
240 *7:317 8.88413e-05
241 *7:318 2.33434e-05
242 *7:319 0.000154529
243 *7:320 0.000210485
244 *7:321 0.000214956
245 *7:322 0.00023884
246 *7:323 2.3884e-05
247 *7:325 4.44873e-05
248 *7:326 2.33434e-05
249 *7:327 0.000210222
250 *7:328 2.29811e-05
251 *7:329 0.000692635
252 *7:332 0.000222436
253 *7:334 4.67159e-05
254 *7:335 0.000163506
255 *7:336 0.000321735
256 *7:337 0.000477679
257 *7:339 0.000177949
258 *7:340 0.000177683
259 *7:341 0.000689432
260 *7:342 2.29811e-05
261 *7:344 0.000298754
262 *7:345 0.000212846
263 *7:347 0.000177683
264 *7:348 0.000919243
265 *7:349 2.29811e-05
266 *7:351 0.00023358
267 *7:352 0.000212846
268 *7:353 2.22436e-05
269 *7:355 0.000367697
270 *7:357 2.3358e-05
271 *7:358 0.000397086
272 *7:359 4.77679e-05
273 *7:360 2.22436e-05
274 *7:363 0.000183849
275 *7:365 0.000377315
276 *7:366 2.29811e-05
277 *7:367 0.000186864
278 *7:368 4.77679e-05
279 *7:371 0.000210222
280 *7:372 4.59622e-05
281 *7:373 0.000377315
282 *7:374 2.29811e-05
283 *7:375 2.29811e-05
284 *7:377 0.000210222
285 *7:378 0.000210222
286 *7:379 2.2759e-05
287 *7:381 0.000552611
288 *7:383 0.000210222
289 *7:384 2.2759e-05
290 *7:386 0.000256938
291 *7:387 0.000726838
292 *7:388 0.000321735
293 *7:390 0.000397086
294 *7:392 0.000197208
295 *7:393 0.000321735
296 *7:394 2.29811e-05
297 *7:395 0.000140148
298 *7:397 2.2759e-05
299 *7:399 2.29811e-05
300 *7:400 0.000135214
301 *7:401 0.000159313
302 *7:404 0.000244774
303 *7:405 0.000568486
304 *7:406 8.7648e-05
305 *7:408 0.00025035
306 *7:409 0.00010956
307 *7:410 0.000431932
308 *7:412 0.000153384
309 *7:413 0.000568976
310 *7:414 2.2759e-05
311 *7:415 0.000266074
312 *7:416 2.2759e-05
313 *7:417 6.5736e-05
314 *7:418 2.1912e-05
315 *7:419 0.000318627
316 *7:420 2.2759e-05
317 *7:421 2.04672e-05
318 *7:422 0.000388877
319 *7:423 2.2759e-05
320 *7:424 0.000455181
321 *7:425 2.1912e-05
322 *7:426 0.000365025
323 *7:430 0.000143271
324 *7:432 0.000455181
325 *7:434 0.000365025
326 *7:437 0.000196015
327 *7:438 0.000131472
328 *7:440 7.00739e-05
329 *7:441 0.000392031
330 *7:442 0.000569712
331 *7:443 0.000773081
332 *7:444 0.000217795
333 *7:447 0.000525888
334 *7:449 0.000703007
335 *7:450 2.17795e-05
336 *7:451 0.000286541
337 *7:453 0.000204831
338 *7:454 8.7648e-05
339 *7:455 0.000105782
340 *7:456 6.14017e-05
341 *7:457 0.000286541
342 *7:458 0.000591735
343 *7:459 0.00022759
344 *7:460 8.46259e-05
345 *7:461 0.000169252
346 *7:462 0.000204672
347 *7:464 0.000386904
348 *7:465 8.7648e-05
349 *7:466 0.00022759
350 *7:467 0.000172193
351 *7:468 4.30482e-05
352 *7:469 0.000148095
353 *7:470 0.000174236
354 *7:471 0.000143271
355 *7:473 8.7648e-05
356 *7:474 8.7648e-05
357 *7:475 6.5736e-05
358 *7:476 6.45723e-05
359 *7:477 0.00010762
360 *7:478 4.30482e-05
361 *7:479 0.00010762
362 *7:480 0.000566266
363 *7:481 2.17795e-05
364 *7:482 8.7648e-05
365 *7:484 6.5736e-05
366 *7:486 8.46259e-05
367 *7:488 0.00010762
368 *7:489 0.000588046
369 *7:491 2.17795e-05
370 *7:494 0.000386904
371 *7:495 0.000253878
372 *7:496 0.000358983
373 *7:497 0.000196015
374 *7:499 0.000266074
375 *7:501 2.2759e-05
376 *7:502 0.000773808
377 *7:503 0.000169252
378 *7:504 0.000387434
379 *7:505 0.000417212
380 *7:506 2.04672e-05
381 *7:507 0.000266074
382 *7:508 8.7648e-05
383 *7:509 0.00010956
384 *7:510 0.00103912
385 *7:511 0.00038835
386 *7:512 0.000602674
387 *7:514 0.000194098
388 *7:515 0.000102336
389 *7:517 8.7648e-05
390 *7:518 0.00010956
391 *7:519 4.3824e-05
392 *7:520 0.00117065
393 *7:521 0.00055369
394 *7:522 2.15241e-05
395 *7:524 0.000215241
396 *7:526 0.000391328
397 *7:527 0.000135868
398 *7:528 0.00059355
399 *7:529 0.000196015
400 *7:533 4.3824e-05
401 *7:534 9.70488e-05
402 *7:535 0.000541196
403 *7:536 0.000186864
404 *7:538 2.11565e-05
405 *7:539 0.000190408
406 *7:540 0.000596159
407 *7:541 2.16478e-05
408 *7:542 0.000532148
409 *7:544 0.000566266
410 *7:548 9.70488e-05
411 *7:549 5.82293e-05
412 *7:550 0.00064347
413 *7:551 2.11565e-05
414 *7:552 0.000211565
415 *7:553 0.000204831
416 *7:555 2.16478e-05
417 *7:556 2.04672e-05
418 *7:557 0.000392031
419 *7:559 0.000392031
420 *7:560 2.04672e-05
421 *7:563 5.82293e-05
422 *7:564 0.00064347
423 *7:565 0.000137886
424 *7:567 2.15241e-05
425 *7:568 2.11565e-05
426 *7:569 0.000350592
427 *7:570 0.000213507
428 *7:572 0.000392031
429 *7:573 2.17795e-05
430 *7:574 2.04672e-05
431 *7:575 2.04672e-05
432 *7:578 0.000137886
433 *7:579 0.000381497
434 *7:582 2.15241e-05
435 *7:583 0.000150669
436 *7:584 0.000372504
437 *7:585 0.000213507
438 *7:588 8.18689e-05
439 *7:589 0.000491213
440 *7:592 2.3358e-05
441 *7:593 0.000510642
442 *7:596 0.000172193
443 *7:597 0.000364145
444 *7:598 2.1912e-05
445 *7:599 0.000389661
446 *7:600 8.18689e-05
447 *7:601 0.000757287
448 *7:602 0.000174236
449 *7:604 4.67159e-05
450 *7:606 0.000129145
451 *7:607 8.46259e-05
452 *7:608 2.15241e-05
453 *7:609 0.000364145
454 *7:610 4.55181e-05
455 *7:611 2.16478e-05
456 *7:612 0.00060614
457 *7:613 8.71179e-05
458 *7:614 0.000327476
459 *7:616 0.000174236
460 *7:617 2.3358e-05
461 *7:619 0.000507755
462 *7:620 0.000211565
463 *7:622 2.1912e-05
464 *7:623 4.55181e-05
465 *7:624 3.88195e-05
466 *7:626 0.000779322
467 *7:627 8.71179e-05
468 *7:629 4.09345e-05
469 *7:630 0.000215884
470 *7:633 0.000114905
471 *7:634 0.000507755
472 *7:635 0.000126939
473 *7:636 2.15241e-05
474 *7:637 2.1912e-05
475 *7:639 3.88195e-05
476 *7:640 1.94098e-05
477 *7:641 0.000541196
478 *7:642 4.09345e-05
479 *7:643 0.000152456
480 *7:644 0.000413421
481 *7:645 0.000114905
482 *7:646 6.45723e-05
483 *7:647 0.000258289
484 *7:648 2.15241e-05
485 *7:651 1.94098e-05
486 *7:652 3.88195e-05
487 *7:653 4.09345e-05
488 *7:654 0.000152456
489 *7:655 0.000197537
490 *7:656 0.000145614
491 *7:657 2.3358e-05
492 *7:658 0.000645722
493 *7:659 0.000258289
494 *7:664 0.000407605
495 *7:665 0.000286566
496 *7:666 0.00025038
497 *7:667 1.82017e-05
498 *7:668 0.000145614
499 *7:669 2.3358e-05
500 *7:671 0.000602674
501 *7:672 0.000317347
502 *7:674 0.000465834
503 *7:676 0.000286566
504 *7:677 0.00025038
505 *7:678 0.000145613
506 *7:681 0.000338504
507 *7:682 2.15241e-05
508 *7:683 0.000317347
509 *7:684 9.70488e-05
510 *7:686 1.82017e-05
511 *7:687 2.3884e-05
512 *7:688 0.000368533
513 *7:689 0.000179579
514 *7:691 0.000444286
515 *7:692 4.2313e-05
516 *7:694 0.000151535
517 *7:695 0.00010921
518 *7:696 2.3884e-05
519 *7:697 0.000241121
520 *7:698 0.000125705
521 *7:699 0.000179579
522 *7:700 2.15241e-05
523 *7:701 0.000105782
524 *7:702 4.2313e-05
525 *7:704 0.000151535
526 *7:706 9.10084e-05
527 *7:707 0.000143663
528 *7:709 4.19564e-05
529 *7:710 0.000125705
530 *7:711 0.000127412
531 *7:712 2.15241e-05
532 *7:713 2.15241e-05
533 *7:714 0.000365909
534 *7:716 1.79579e-05
535 *7:717 0.000143663
536 *7:718 4.19564e-05
537 *7:720 0.000127412
538 *7:722 2.15241e-05
539 *7:723 0.000365909
540 *7:724 1.79579e-05
541 *7:725 1.82017e-05
542 *7:727 0.000107747
543 *7:729 2.11565e-05
544 *7:731 1.82017e-05
545 *7:732 0.000107747
546 *7:733 4.2313e-05
547 *7:736 0.000211565
548 *7:737 0.000172193
549 *7:739 0.000190408
550 *7:740 2.15241e-05
551 *7:741 0.000172193
552 *7:742 0.000236765
553 *7:743 2.15241e-05
554 *7:745 0.00058115
555 *7:746 2.15241e-05
556 *7:748 0.000163027
557 *7:749 0.000365909
558 *7:751 0.000163027
559 *7:752 4.2313e-05
560 *7:753 0.000170592
561 *7:754 4.2313e-05
562 *7:755 0.000170592
563 *7:758 0.000181789
564 *7:760 0.000262585
565 *7:761 8.07953e-05
566 *7:762 2.1324e-05
567 *7:763 0.000575747
568 *7:764 2.1324e-05
569 *7:765 0.000597071
570 *7:767 2.1324e-05
571 *7:768 2.01988e-05
572 *7:769 0.00050497
573 *7:770 2.01988e-05
574 *7:771 0.000525169
575 *7:773 2.01988e-05
576 *7:774 0.000234563
577 *7:776 0.000149268
578 *7:777 0.000597071
579 *7:778 0.000170592
580 *7:779 4.03976e-05
581 *7:780 0.000362507
582 *7:781 0.000237593
583 *7:782 8.07953e-05
584 *7:783 4.03976e-05
585 *7:784 2.01988e-05
586 *7:785 0.000613107
587 *7:787 8.07953e-05
588 *7:789 0.000383777
589 *7:790 0.000396838
590 *7:791 2.20059e-05
591 *7:794 0.000363579
592 *7:795 0.000405155
593 *7:796 4.40119e-05
594 *7:797 2.20059e-05
595 *7:799 2.1324e-05
596 *7:800 0.000533099
597 *7:801 4.40119e-05
598 *7:803 0.000149268
599 *7:804 2.01988e-05
600 *7:805 0.000127944
601 *7:809 0.000127944
602 *7:810 2.01988e-05
603 *7:811 0.000222187
604 *7:813 0.000161591
605 *7:815 0.000222187
606 *7:816 0.000484772
607 *7:818 2.1324e-05
608 *7:819 0.000363579
609 *7:820 2.1324e-05
610 *7:821 2.1324e-05
611 *7:822 4.03976e-05
612 *7:823 2.1324e-05
613 *7:824 2.1324e-05
614 *7:826 0.000234563
615 *7:827 0.000149268
616 *7:829 0.000234563
617 *7:831 0.000127944
618 *7:832 2.01988e-05
619 *7:833 5.96185e-05
620 *7:834 2.01988e-05
621 *7:835 5.96185e-05
622 *7:836 0.000127944
623 *7:837 7.27763e-05
624 *7:838 0.000149268
625 *7:839 7.27763e-05
626 *7:840 0.000170592
627 *7:841 3.94197e-05
628 *7:842 3.94197e-05
629 *7:843 0.000149268
630 *7:844 8.07953e-05
631 *7:845 3.94197e-05
632 *7:846 0.000221209
633 *7:847 5.76626e-05
634 *7:848 8.07953e-05
635 *7:850 2.1324e-05
636 *7:851 0.000181789
637 *7:852 0.000677921
638 *7:853 2.1324e-05
639 *7:855 2.1324e-05
640 *7:856 0.000170592
641 *7:857 0.000620258
642 *7:858 0.000181941
643 *7:859 2.1324e-05
644 *7:861 0.000170592
645 *7:862 1.81941e-05
646 *7:863 0.000309299
647 *7:866 0.00080054
648 *7:867 0.000127359
649 *7:868 5.57066e-05
650 *7:869 7.29716e-05
651 *7:870 0.00100067
652 *7:872 1.82429e-05
653 *7:873 3.74637e-05
654 *7:874 7.29716e-05
655 *7:876 0.000218329
656 *7:880 0.000492558
657 *7:884 0.000492558
658 *7:885 0.000127359
659 *7:886 0.000127359
660 *7:887 9.12145e-06
661 *7:888 1.82429e-05
662 *7 9.12145e-06

*RES
1 *7:888 *7 0.0621417
2 *7:887 *7:888 0.0621417
3 *7:886 *7:887 1.4
4 *7:885 *7:886 0.869984
5 *7:884 *7:885 1.4
6 *7:880 *7:884 3.35565
7 *7:879 *911:CK 1.4
8 *7:878 *954:CK 1.4
9 *7:877 *912:CK 1.4
10 *7:876 *7:880 1.4
11 *7:874 *7:879 1.4
12 *7:873 *7:878 1.4
13 *7:872 *7:877 1.4
14 *7:870 *7:876 1.4914
15 *7:870 *938:CK 1.4
16 *7:869 *7:874 0.497134
17 *7:868 *7:873 0.248569
18 *7:868 *7:872 0.124283
19 *7:867 *913:CK 1.4
20 *7:866 *7:870 5.34419
21 *7:866 *7:869 1.4
22 *7:863 *7:868 1.4
23 *7:863 *7:867 0.869984
24 *7:862 *7:866 0.124283
25 *7:861 *925:CK 1.4
26 *7:859 *937:CK 1.4
27 *7:858 *7:863 1.24283
28 *7:857 *7:862 1.4
29 *7:856 *7:861 0.994261
30 *7:855 *943:CK 1.4
31 *7:853 *7:859 0.124283
32 *7:852 *7:858 1.4
33 *7:852 *7:857 4.22564
34 *7:851 *7:856 1.4
35 *7:850 *7:855 0.124283
36 *7:849 *910:CK 1.4
37 *7:848 *7:853 1.4
38 *7:847 *7:852 0.372858
39 *7:846 *7:851 1.11859
40 *7:846 *7:850 1.4
41 *7:845 *7:849 1.4
42 *7:844 *7:848 0.497153
43 *7:843 *7:847 1.4
44 *7:842 *7:846 0.248574
45 *7:841 *7:845 0.248574
46 *7:840 *7:844 1.4
47 *7:840 *7:843 0.869979
48 *7:839 *7:842 1.4
49 *7:838 *7:841 1.4
50 *7:838 *7:840 0.124283
51 *7:837 *7:839 0.497134
52 *7:836 *7:838 0.745696
53 *7:835 *7:837 1.4
54 *7:834 *7:836 1.4
55 *7:833 *7:835 0.372862
56 *7:832 *7:834 0.124288
57 *7:831 *7:833 1.4
58 *7:829 *7:832 1.4
59 *7:827 *7:831 0.745696
60 *7:827 *935:CK 1.4
61 *7:826 *7:829 1.36711
62 *7:824 *926:CK 1.4
63 *7:823 *7:827 0.124283
64 *7:822 *7:826 1.4
65 *7:821 *909:CK 1.4
66 *7:820 *7:824 0.124283
67 *7:819 *7:823 1.4
68 *7:819 *7:822 0.248577
69 *7:818 *7:821 0.124283
70 *7:816 *7:820 1.4
71 *7:816 *7:819 1.98861
72 *7:815 *7:818 1.4
73 *7:814 *908:CK 1.4
74 *7:813 *7:816 0.994306
75 *7:811 *7:815 1.36717
76 *7:810 *7:814 1.4
77 *7:809 *7:813 1.4
78 *7:806 *534:CK 1.4
79 *7:805 *7:811 1.4
80 *7:804 *7:810 0.124288
81 *7:803 *7:809 0.745696
82 *7:803 *934:CK 1.4
83 *7:802 *915:CK 1.4
84 *7:801 *7:806 1.4
85 *7:800 *7:805 0.745696
86 *7:800 *7:804 1.4
87 *7:799 *7:803 0.124283
88 *7:797 *7:802 1.4
89 *7:796 *7:801 0.248578
90 *7:795 *7:800 2.36137
91 *7:794 *7:799 1.4
92 *7:792 *914:CK 1.4
93 *7:791 *7:797 0.124289
94 *7:790 *7:796 1.4
95 *7:789 *7:795 1.4
96 *7:789 *7:794 2.23719
97 *7:788 *955:CK 1.4
98 *7:787 *7:792 1.4
99 *7:785 *7:791 1.4
100 *7:785 *7:790 2.11281
101 *7:784 *7:789 0.124288
102 *7:783 *7:788 1.4
103 *7:782 *7:787 0.497153
104 *7:781 *532:CK 1.4
105 *7:781 *7:785 1.24283
106 *7:780 *7:784 1.4
107 *7:779 *7:783 0.248577
108 *7:778 *7:782 1.4
109 *7:778 *7:781 0.124283
110 *7:777 *7:780 2.11281
111 *7:777 *7:779 1.4
112 *7:776 *7:778 0.869979
113 *7:774 *7:777 1.36711
114 *7:773 *7:776 1.4
115 *7:772 *843:CK 1.4
116 *7:771 *7:774 1.4
117 *7:771 *7:773 0.124288
118 *7:770 *7:772 1.4
119 *7:769 *7:771 3.10721
120 *7:768 *7:770 0.124288
121 *7:767 *7:769 1.4
122 *7:765 *7:768 1.4
123 *7:765 *7:767 0.124283
124 *7:764 *924:CK 1.4
125 *7:763 *7:765 3.35563
126 *7:762 *7:764 0.124283
127 *7:761 *7:763 1.4
128 *7:760 *7:762 1.4
129 *7:760 *7:761 0.497153
130 *7:758 *7:760 1.11859
131 *7:757 *538:CK 1.4
132 *7:755 *7:758 1.4
133 *7:754 *7:757 1.4
134 *7:753 *940:CK 1.4
135 *7:753 *7:755 0.994261
136 *7:752 *7:754 0.248577
137 *7:751 *7:753 1.4
138 *7:749 *7:752 1.4
139 *7:748 *7:751 0.994307
140 *7:746 *927:CK 1.4
141 *7:745 *7:749 2.1129
142 *7:745 *7:748 1.4
143 *7:743 *951:CK 1.4
144 *7:742 *7:746 0.124288
145 *7:742 *7:745 1.24288
146 *7:741 *952:CK 1.4
147 *7:740 *7:743 0.124288
148 *7:739 *7:742 1.4
149 *7:737 *7:741 0.994307
150 *7:736 *7:740 1.4
151 *7:736 *7:739 1.1186
152 *7:734 *866:CK 1.4
153 *7:733 *7:737 1.4
154 *7:733 *7:736 0.124288
155 *7:732 *904:CK 1.4
156 *7:731 *7:734 1.4
157 *7:729 *7:733 0.124288
158 *7:727 *7:732 0.745702
159 *7:725 *7:731 0.124283
160 *7:724 *873:CK 1.4
161 *7:723 *7:729 1.4
162 *7:722 *950:CK 1.4
163 *7:720 *7:727 1.4
164 *7:718 *902:CK 1.4
165 *7:717 *7:725 1.4
166 *7:716 *7:724 0.124284
167 *7:714 *7:723 2.1129
168 *7:713 *7:722 0.124288
169 *7:712 *953:CK 1.4
170 *7:711 *7:720 0.869984
171 *7:710 *898:CK 1.4
172 *7:709 *7:718 0.248566
173 *7:707 *7:717 0.994269
174 *7:706 *7:716 1.4
175 *7:704 *962:CK 1.4
176 *7:702 *7:714 1.4
177 *7:701 *7:713 1.4
178 *7:700 *7:712 0.124288
179 *7:699 *7:711 1.4
180 *7:698 *7:710 0.869985
181 *7:697 *7:709 1.4
182 *7:696 *785:CK 1.4
183 *7:695 *7:707 1.4
184 *7:695 *7:706 0.621417
185 *7:694 *949:CK 1.4
186 *7:694 *7:704 0.870017
187 *7:693 *942:CK 1.4
188 *7:692 *7:702 0.248577
189 *7:691 *7:701 0.621442
190 *7:691 *7:700 1.4
191 *7:689 *7:699 1.24284
192 *7:688 *7:698 1.4
193 *7:688 *7:697 1.4914
194 *7:687 *7:696 0.124283
195 *7:686 *7:695 0.124283
196 *7:684 *7:694 1.4
197 *7:683 *7:693 1.4
198 *7:682 *7:692 1.4
199 *7:681 *7:691 1.98861
200 *7:679 *901:CK 1.4
201 *7:678 *7:689 1.4
202 *7:678 *7:688 0.869984
203 *7:677 *7:687 1.4
204 *7:676 *7:686 1.4
205 *7:675 *963:CK 1.4
206 *7:674 *7:684 0.621444
207 *7:672 *7:683 1.86433
208 *7:671 *7:682 0.124288
209 *7:671 *7:681 1.4
210 *7:669 *529:CK 1.4
211 *7:668 *7:679 1.4
212 *7:667 *7:678 0.124283
213 *7:666 *7:677 1.4914
214 *7:665 *7:676 1.86425
215 *7:664 *7:675 1.4
216 *7:664 *7:674 2.36149
217 *7:663 *968:CK 1.4
218 *7:659 *7:672 1.4
219 *7:658 *7:671 3.35579
220 *7:658 *537:CK 1.4
221 *7:657 *7:669 0.124289
222 *7:656 *7:668 0.994267
223 *7:655 *7:667 1.4
224 *7:654 *7:666 1.4
225 *7:653 *7:665 1.4
226 *7:652 *7:664 0.248578
227 *7:651 *7:663 1.4
228 *7:650 *948:CK 1.4
229 *7:649 *896:CK 1.4
230 *7:648 *930:CK 1.4
231 *7:647 *7:659 1.49146
232 *7:646 *7:658 0.372865
233 *7:645 *7:657 1.4
234 *7:644 *7:656 1.4
235 *7:644 *7:655 1.36712
236 *7:643 *7:654 0.869979
237 *7:642 *7:653 0.248566
238 *7:641 *7:652 1.4
239 *7:640 *7:651 0.124289
240 *7:639 *7:650 1.4
241 *7:637 *7:649 1.4
242 *7:636 *7:648 0.124288
243 *7:635 *7:647 1.4
244 *7:634 *7:646 1.4
245 *7:633 *7:645 0.621444
246 *7:630 *7:644 1.24283
247 *7:629 *7:643 1.4
248 *7:627 *7:642 1.4
249 *7:626 *7:641 3.1072
250 *7:626 *7:640 1.4
251 *7:624 *7:639 0.248578
252 *7:623 *932:CK 1.4
253 *7:622 *7:637 0.124283
254 *7:620 *7:636 1.4
255 *7:620 *7:635 0.74573
256 *7:619 *7:634 2.98292
257 *7:617 *7:633 1.4
258 *7:616 *875:CK 1.4
259 *7:615 *790:CK 1.4
260 *7:614 *7:630 1.4
261 *7:614 *7:629 0.248566
262 *7:613 *874:CK 1.4
263 *7:613 *7:627 0.497131
264 *7:612 *7:626 1.36717
265 *7:612 *965:CK 1.4
266 *7:611 *7:624 1.4
267 *7:610 *7:623 0.248577
268 *7:609 *7:622 1.4
269 *7:608 *960:CK 1.4
270 *7:607 *7:620 0.497153
271 *7:606 *7:619 1.4
272 *7:604 *598:CK 1.4
273 *7:604 *7:617 0.124289
274 *7:602 *7:616 0.994261
275 *7:601 *7:615 1.4
276 *7:601 *7:614 1.73996
277 *7:600 *7:613 1.4
278 *7:599 *7:612 2.1129
279 *7:599 *7:611 0.124288
280 *7:598 *7:610 1.4
281 *7:597 *7:609 1.98862
282 *7:596 *7:608 0.124288
283 *7:596 *7:607 1.4
284 *7:593 *7:606 0.74573
285 *7:593 *549:CK 1.4
286 *7:592 *7:604 0.124289
287 *7:590 *867:CK 1.4
288 *7:589 *7:602 1.4
289 *7:589 *7:601 2.85851
290 *7:588 *7:600 0.497132
291 *7:585 *7:599 1.4
292 *7:584 *7:598 0.124283
293 *7:584 *7:597 1.4
294 *7:583 *7:596 0.870019
295 *7:582 *961:CK 1.4
296 *7:580 *936:CK 1.4
297 *7:579 *7:593 2.11291
298 *7:578 *7:592 1.4
299 *7:577 *966:CK 1.4
300 *7:575 *7:590 1.4
301 *7:574 *7:589 0.124283
302 *7:573 *7:588 1.4
303 *7:572 *671:CK 1.4
304 *7:571 *786:CK 1.4
305 *7:570 *7:585 1.36718
306 *7:569 *7:584 1.98853
307 *7:568 *7:583 1.4
308 *7:567 *7:582 0.124288
309 *7:566 *547:CK 1.4
310 *7:565 *7:580 1.4
311 *7:564 *7:579 1.4
312 *7:564 *7:578 0.745732
313 *7:563 *7:577 1.4
314 *7:562 *897:CK 1.4
315 *7:560 *7:575 0.124283
316 *7:559 *7:574 1.4
317 *7:559 *7:573 0.124283
318 *7:557 *7:572 2.23709
319 *7:556 *7:571 1.4
320 *7:555 *7:570 1.4
321 *7:553 *7:569 1.4
322 *7:552 *7:568 0.124288
323 *7:552 *7:567 1.4
324 *7:551 *7:566 1.4
325 *7:550 *7:565 0.745732
326 *7:550 *7:564 2.73435
327 *7:549 *7:563 0.372866
328 *7:548 *7:562 1.4
329 *7:547 *916:CK 1.4
330 *7:544 *7:560 1.4
331 *7:544 *7:559 2.11281
332 *7:543 *865:CK 1.4
333 *7:542 *7:557 1.4
334 *7:542 *7:556 0.124283
335 *7:541 *7:555 0.124288
336 *7:540 *941:CK 1.4
337 *7:540 *7:553 1.1186
338 *7:539 *7:552 1.1186
339 *7:538 *7:551 0.124288
340 *7:536 *7:550 1.4
341 *7:535 *7:549 1.4
342 *7:534 *7:548 0.621444
343 *7:533 *7:547 1.4
344 *7:532 *931:CK 1.4
345 *7:531 *524:CK 1.4
346 *7:529 *7:544 1.11854
347 *7:528 *7:543 1.4
348 *7:528 *7:542 3.10708
349 *7:527 *7:541 1.4
350 *7:526 *7:540 2.23719
351 *7:524 *7:539 1.4
352 *7:522 *7:538 1.4
353 *7:521 *546:CK 1.4
354 *7:521 *7:536 0.99431
355 *7:520 *7:535 3.1072
356 *7:520 *7:534 1.4
357 *7:519 *7:533 0.248566
358 *7:518 *7:532 1.4
359 *7:517 *7:531 1.4
360 *7:516 *670:CK 1.4
361 *7:515 *7:529 1.4
362 *7:515 *7:528 0.497132
363 *7:514 *7:527 0.870021
364 *7:514 *7:526 1.4
365 *7:513 *939:CK 1.4
366 *7:512 *7:524 1.24288
367 *7:512 *967:CK 1.4
368 *7:511 *7:522 0.124288
369 *7:511 *7:521 2.1129
370 *7:510 *7:520 3.60436
371 *7:510 *7:519 1.4
372 *7:509 *7:518 0.621415
373 *7:508 *7:517 0.497132
374 *7:507 *7:516 1.4
375 *7:506 *7:515 0.124283
376 *7:505 *7:514 0.372866
377 *7:505 *7:513 1.4
378 *7:504 *7:512 2.23719
379 *7:503 *7:511 1.4
380 *7:502 *7:510 2.2372
381 *7:502 *7:509 1.4
382 *7:501 *7:508 1.4
383 *7:499 *7:507 1.61568
384 *7:497 *7:506 1.4
385 *7:496 *7:505 2.2372
386 *7:495 *7:504 1.4
387 *7:495 *7:503 0.994307
388 *7:494 *7:502 1.98862
389 *7:494 *7:501 0.124289
390 *7:492 *876:CK 1.4
391 *7:491 *7:499 1.4
392 *7:489 *871:CK 1.4
393 *7:489 *7:497 1.11854
394 *7:488 *7:496 1.4
395 *7:486 *7:495 0.497153
396 *7:484 *7:494 1.4
397 *7:483 *669:CK 1.4
398 *7:482 *7:492 1.4
399 *7:481 *7:491 0.124283
400 *7:480 *872:CK 1.4
401 *7:480 *7:489 2.23709
402 *7:479 *7:488 0.621442
403 *7:478 *929:CK 1.4
404 *7:477 *7:486 1.4
405 *7:476 *841:CK 1.4
406 *7:475 *7:484 0.372849
407 *7:474 *7:483 1.4
408 *7:473 *7:482 0.497132
409 *7:471 *7:481 1.4
410 *7:470 *7:480 0.994261
411 *7:469 *7:479 1.4
412 *7:468 *7:478 0.248577
413 *7:467 *7:477 0.621442
414 *7:467 *7:476 0.372865
415 *7:466 *7:475 1.4
416 *7:465 *7:474 0.497132
417 *7:464 *7:473 1.4
418 *7:463 *672:CK 1.4
419 *7:462 *7:471 0.869982
420 *7:462 *7:470 1.4
421 *7:461 *7:469 0.870019
422 *7:461 *7:468 1.4
423 *7:460 *7:467 1.4
424 *7:459 *7:466 1.24289
425 *7:458 *7:465 1.4
426 *7:458 *7:464 2.11291
427 *7:457 *7:463 1.4
428 *7:456 *7:462 0.372849
429 *7:455 *7:461 0.124288
430 *7:455 *7:460 0.497153
431 *7:454 *7:459 1.4
432 *7:453 *7:458 1.1186
433 *7:451 *7:457 1.73996
434 *7:450 *7:456 1.4
435 *7:449 *7:455 1.4
436 *7:447 *7:454 0.497132
437 *7:447 *7:453 1.4
438 *7:446 *523:CK 1.4
439 *7:444 *7:451 1.4
440 *7:444 *7:450 0.124283
441 *7:443 *7:449 3.85295
442 *7:443 *928:CK 1.4
443 *7:442 *7:447 2.48566
444 *7:442 *7:446 1.4
445 *7:441 *666:CK 1.4
446 *7:441 *7:444 1.11854
447 *7:440 *7:443 0.372866
448 *7:438 *7:442 0.745698
449 *7:437 *7:441 1.11854
450 *7:434 *7:440 1.4
451 *7:433 *525:CK 1.4
452 *7:432 *7:438 1.4
453 *7:430 *7:437 1.4
454 *7:429 *673:CK 1.4
455 *7:428 *668:CK 1.4
456 *7:426 *7:434 1.98861
457 *7:425 *7:433 1.4
458 *7:424 *7:432 2.48577
459 *7:423 *877:CK 1.4
460 *7:422 *7:430 0.869982
461 *7:422 *7:429 1.4
462 *7:421 *7:428 1.4
463 *7:420 *870:CK 1.4
464 *7:419 *7:426 1.4
465 *7:418 *7:425 0.124283
466 *7:417 *7:424 1.4
467 *7:416 *7:423 0.124289
468 *7:415 *7:422 1.4914
469 *7:415 *7:421 0.124283
470 *7:414 *7:420 0.124289
471 *7:413 *7:419 1.74004
472 *7:413 *7:418 1.4
473 *7:412 *7:417 0.372849
474 *7:412 *7:416 1.4
475 *7:410 *7:415 1.4
476 *7:409 *7:414 1.4
477 *7:408 *7:413 1.36718
478 *7:406 *7:412 0.497132
479 *7:405 *959:CK 1.4
480 *7:405 *7:410 2.36148
481 *7:404 *7:409 0.621415
482 *7:404 *7:408 1.4
483 *7:403 *964:CK 1.4
484 *7:401 *7:406 1.4
485 *7:401 *7:405 0.745732
486 *7:400 *7:404 0.745718
487 *7:399 *7:403 1.4
488 *7:398 *599:CK 1.4
489 *7:397 *7:401 0.124289
490 *7:395 *7:400 1.4
491 *7:394 *7:399 0.124289
492 *7:393 *7:398 1.4
493 *7:392 *7:397 1.4
494 *7:391 *933:CK 1.4
495 *7:390 *7:395 0.745732
496 *7:390 *7:394 1.4
497 *7:388 *7:393 1.74004
498 *7:387 *7:392 1.11855
499 *7:387 *7:391 1.4
500 *7:386 *7:390 1.36718
501 *7:384 *667:CK 1.4
502 *7:383 *7:388 1.4
503 *7:381 *7:387 2.98281
504 *7:381 *7:386 1.4
505 *7:380 *602:CK 1.4
506 *7:379 *7:384 0.124289
507 *7:378 *7:383 1.1186
508 *7:377 *603:CK 1.4
509 *7:375 *7:381 0.124289
510 *7:374 *7:380 1.4
511 *7:373 *7:379 1.4
512 *7:372 *7:378 1.4
513 *7:371 *7:377 1.1186
514 *7:368 *788:CK 1.4
515 *7:367 *7:375 1.4
516 *7:366 *7:374 0.124289
517 *7:365 *7:373 2.11284
518 *7:363 *7:372 0.248577
519 *7:363 *7:371 1.4
520 *7:362 *615:CK 1.4
521 *7:360 *648:CK 1.4
522 *7:359 *7:368 0.248565
523 *7:358 *7:367 0.99431
524 *7:358 *7:366 1.4
525 *7:357 *7:365 1.4
526 *7:356 *528:CK 1.4
527 *7:355 *7:363 0.745732
528 *7:355 *7:362 1.4
529 *7:354 *526:CK 1.4
530 *7:353 *7:360 0.124283
531 *7:352 *7:359 1.4
532 *7:351 *7:358 1.1186
533 *7:351 *7:357 0.124289
534 *7:349 *7:356 1.4
535 *7:348 *7:355 1.24289
536 *7:348 *7:354 1.4
537 *7:347 *7:353 1.4
538 *7:345 *7:352 1.11855
539 *7:344 *7:351 1.4
540 *7:343 *579:CK 1.4
541 *7:342 *7:349 0.124289
542 *7:341 *7:348 3.72866
543 *7:340 *7:347 0.994264
544 *7:339 *659:CK 1.4
545 *7:337 *7:345 1.4
546 *7:336 *7:344 1.61575
547 *7:336 *7:343 1.4
548 *7:335 *7:342 1.4
549 *7:334 *7:341 1.4
550 *7:332 *7:340 1.4
551 *7:332 *7:339 0.994261
552 *7:329 *822:CK 1.4
553 *7:329 *7:337 2.48565
554 *7:328 *7:336 0.124289
555 *7:327 *7:335 0.870021
556 *7:327 *7:334 0.248578
557 *7:326 *682:CK 1.4
558 *7:325 *7:332 0.248565
559 *7:323 *584:CK 1.4
560 *7:322 *905:CK 1.4
561 *7:321 *7:329 1.11854
562 *7:320 *7:328 1.4
563 *7:319 *7:327 1.4
564 *7:318 *7:326 0.124283
565 *7:317 *7:325 1.4
566 *7:316 *900:CK 1.4
567 *7:315 *7:323 0.124283
568 *7:314 *7:322 1.24283
569 *7:313 *7:321 1.4
570 *7:312 *7:320 1.1186
571 *7:310 *7:319 0.870021
572 *7:310 *7:318 1.4
573 *7:309 *7:317 0.497132
574 *7:308 *7:316 1.11855
575 *7:306 *7:315 1.4
576 *7:305 *7:314 1.4
577 *7:304 *7:313 0.124283
578 *7:304 *7:312 1.4
579 *7:303 *821:CK 1.4
580 *7:302 *7:310 0.745732
581 *7:300 *7:309 1.4
582 *7:299 *7:308 1.4
583 *7:298 *899:CK 1.4
584 *7:296 *7:306 0.869981
585 *7:296 *7:305 0.248566
586 *7:295 *7:304 1.98853
587 *7:295 *7:303 1.4
588 *7:294 *7:302 1.4
589 *7:291 *600:CK 1.4
590 *7:291 *7:300 0.994261
591 *7:290 *7:299 0.621415
592 *7:290 *7:298 1.4
593 *7:289 *580:CK 1.4
594 *7:288 *7:296 1.4
595 *7:287 *7:295 2.60994
596 *7:286 *7:294 1.49139
597 *7:286 *683:CK 1.4
598 *7:285 *607:CK 1.4
599 *7:284 *7:291 2.23709
600 *7:283 *7:290 0.745698
601 *7:282 *7:289 0.124283
602 *7:282 *7:288 0.869979
603 *7:281 *7:287 1.4
604 *7:280 *7:286 1.73996
605 *7:278 *7:285 1.11854
606 *7:277 *7:284 1.4
607 *7:276 *7:283 1.4
608 *7:274 *7:282 1.4
609 *7:273 *7:281 1.24283
610 *7:272 *7:280 1.4
611 *7:271 *593:CK 1.4
612 *7:270 *7:278 1.4
613 *7:270 *7:277 0.99431
614 *7:269 *7:276 1.24283
615 *7:268 *907:CK 1.4
616 *7:266 *7:274 0.372849
617 *7:266 *7:273 1.4
618 *7:265 *7:272 1.98862
619 *7:264 *7:271 1.4
620 *7:264 *7:270 1.49146
621 *7:263 *7:269 1.4
622 *7:262 *7:268 0.124283
623 *7:261 *601:CK 1.4
624 *7:260 *7:266 2.60994
625 *7:259 *7:265 1.4
626 *7:258 *7:264 0.124289
627 *7:257 *7:263 0.869981
628 *7:257 *7:262 1.4
629 *7:256 *7:261 0.124283
630 *7:256 *7:260 1.4
631 *7:255 *7:259 0.372848
632 *7:255 *7:258 1.4
633 *7:253 *7:257 0.248566
634 *7:252 *7:256 0.869979
635 *7:250 *7:255 3.35563
636 *7:250 *647:CK 1.4
637 *7:247 *7:253 1.4
638 *7:246 *7:252 1.4
639 *7:245 *588:CK 1.4
640 *7:244 *7:250 1.4
641 *7:243 *781:CK 1.4
642 *7:242 *774:CK 1.4
643 *7:241 *7:247 0.994265
644 *7:239 *7:246 0.372849
645 *7:238 *7:245 1.4
646 *7:238 *7:244 4.10134
647 *7:237 *7:243 0.248565
648 *7:235 *7:242 1.4
649 *7:234 *7:241 1.4
650 *7:233 *906:CK 1.4
651 *7:232 *7:239 1.4
652 *7:231 *7:238 0.745698
653 *7:230 *7:237 1.4
654 *7:229 *575:CK 1.4
655 *7:228 *7:235 0.372849
656 *7:227 *7:234 0.621415
657 *7:227 *7:233 1.4
658 *7:226 *7:232 0.124283
659 *7:226 *7:231 1.4
660 *7:225 *7:230 0.497132
661 *7:224 *7:229 1.4
662 *7:223 *7:228 1.4
663 *7:222 *7:227 0.994264
664 *7:221 *7:226 1.98852
665 *7:221 *7:225 1.4
666 *7:220 *7:224 0.372849
667 *7:219 *7:223 2.23709
668 *7:219 *7:222 1.4
669 *7:217 *7:221 0.248565
670 *7:217 *7:220 1.4
671 *7:216 *7:219 0.248566
672 *7:215 *856:CK 1.4
673 *7:213 *7:217 0.497131
674 *7:212 *7:216 1.4
675 *7:211 *7:215 1.98853
676 *7:210 *895:CK 1.4
677 *7:209 *7:213 1.4
678 *7:207 *7:212 1.86425
679 *7:207 *7:211 1.4
680 *7:206 *7:210 0.124283
681 *7:205 *7:209 0.124283
682 *7:204 *777:CK 1.4
683 *7:203 *7:207 0.621415
684 *7:203 *7:206 1.4
685 *7:202 *7:205 1.4
686 *7:200 *7:204 1.4
687 *7:199 *7:203 0.497132
688 *7:198 *7:202 1.73996
689 *7:198 *776:CK 1.4
690 *7:197 *7:200 0.248566
691 *7:196 *7:199 1.4
692 *7:195 *7:198 1.24283
693 *7:194 *7:197 1.4
694 *7:194 *7:196 1.36711
695 *7:193 *7:195 1.4
696 *7:192 *7:194 3.23135
697 *7:191 *7:193 1.11855
698 *7:191 *7:192 1.4
699 *7:190 *7:191 0.124283
700 *7:188 *7:190 1.4
701 *7:186 *857:CK 1.4
702 *7:186 *7:188 0.124283
703 *7:185 *858:CK 1.4
704 *7:184 *7:186 0.248565
705 *7:183 *7:185 1.4
706 *7:181 *7:184 1.4
707 *7:180 *7:183 0.745698
708 *7:179 *882:CK 1.4
709 *7:178 *7:181 1.73996
710 *7:177 *7:180 1.4
711 *7:176 *7:179 0.994261
712 *7:175 *7:178 1.4
713 *7:174 *7:177 0.745696
714 *7:173 *7:176 1.4
715 *7:172 *7:175 0.869979
716 *7:169 *7:174 1.4
717 *7:168 *7:173 0.124283
718 *7:168 *7:172 1.4
719 *7:167 *903:CK 1.4
720 *7:165 *921:CK 1.4
721 *7:164 *7:169 0.497132
722 *7:163 *7:168 0.869981
723 *7:163 *7:167 1.4
724 *7:161 *944:CK 1.4
725 *7:160 *7:165 1.4
726 *7:158 *7:164 1.4
727 *7:157 *7:163 1.24283
728 *7:156 *919:CK 1.4
729 *7:155 *7:161 1.4
730 *7:154 *7:160 0.124283
731 *7:153 *945:CK 1.4
732 *7:152 *7:158 0.372848
733 *7:152 *7:157 1.4
734 *7:150 *7:156 1.4
735 *7:149 *7:155 0.372865
736 *7:148 *7:154 1.4
737 *7:148 *7:153 2.2372
738 *7:147 *7:152 2.23709
739 *7:147 *577:CK 1.4
740 *7:145 *7:150 0.248577
741 *7:144 *7:149 1.4
742 *7:144 *7:148 3.60422
743 *7:143 *7:147 0.124283
744 *7:142 *839:CK 1.4
745 *7:141 *7:145 1.4
746 *7:140 *7:144 3.23136
747 *7:139 *7:143 1.4
748 *7:138 *7:142 0.994261
749 *7:137 *7:141 1.24283
750 *7:136 *7:140 1.4
751 *7:134 *7:139 1.61568
752 *7:134 *7:138 1.4
753 *7:133 *7:137 1.4
754 *7:133 *7:136 0.124288
755 *7:132 *947:CK 1.4
756 *7:130 *7:134 0.745698
757 *7:129 *7:133 4.35009
758 *7:128 *7:132 1.4
759 *7:127 *917:CK 1.4
760 *7:126 *7:130 1.4
761 *7:124 *7:129 1.4
762 *7:123 *7:128 0.124288
763 *7:122 *7:127 1.4
764 *7:120 *7:126 1.11854
765 *7:119 *576:CK 1.4
766 *7:117 *7:124 0.124283
767 *7:117 *7:123 1.4
768 *7:116 *7:122 0.248577
769 *7:115 *922:CK 1.4
770 *7:114 *7:120 1.4
771 *7:113 *7:119 0.124283
772 *7:112 *651:CK 1.4
773 *7:110 *7:117 0.869982
774 *7:110 *7:116 1.4
775 *7:108 *7:115 1.4
776 *7:107 *7:114 0.869981
777 *7:107 *7:113 1.4
778 *7:106 *7:112 0.124283
779 *7:105 *658:CK 1.4
780 *7:104 *7:110 4.47419
781 *7:104 *920:CK 1.4
782 *7:103 *7:108 0.124283
783 *7:102 *7:107 0.621415
784 *7:102 *7:106 1.4
785 *7:101 *7:105 1.4
786 *7:100 *7:104 2.23714
787 *7:100 *7:103 1.4
788 *7:99 *7:102 0.745698
789 *7:98 *7:101 0.621414
790 *7:97 *7:100 3.72866
791 *7:95 *7:99 1.4
792 *7:94 *7:98 1.4
793 *7:92 *7:97 1.4
794 *7:91 *649:CK 1.4
795 *7:91 *7:95 1.24283
796 *7:90 *7:94 0.124289
797 *7:90 *923:CK 1.4
798 *7:89 *7:92 0.497131
799 *7:88 *7:91 1.4
800 *7:87 *7:90 0.124289
801 *7:87 *7:89 1.4
802 *7:85 *7:88 3.23136
803 *7:84 *7:87 0.745733
804 *7:84 *918:CK 1.4
805 *7:83 *7:85 1.4
806 *7:82 *7:84 1.1186
807 *7:82 *7:83 0.124289
808 *7:81 *7:82 1.4
809 *7:80 *7:81 2.48565
810 *7:78 *7:80 1.4
811 *7:76 *946:CK 1.4
812 *7:75 *7:78 0.124289
813 *7:75 *869:CK 1.4
814 *7:74 *7:76 0.124289
815 *7:73 *7:75 0.870021
816 *7:72 *7:74 1.4
817 *7:70 *7:73 1.4
818 *7:70 *7:72 2.36137
819 *7:69 *868:CK 1.4
820 *7:68 *7:70 0.745696
821 *7:67 *7:69 1.4
822 *7:65 *7:68 1.4
823 *7:64 *7:67 0.124283
824 *7:63 *881:CK 1.4
825 *7:62 *7:65 1.36718
826 *7:62 *7:64 1.4
827 *7:60 *7:63 0.9943
828 *7:58 *7:62 0.99431
829 *7:57 *956:CK 1.4
830 *7:56 *7:60 1.4
831 *7:55 *957:CK 1.4
832 *7:54 *7:58 1.4
833 *7:53 *7:57 1.4
834 *7:53 *7:56 1.98852
835 *7:52 *7:55 1.4
836 *7:52 *7:54 1.73996
837 *7:51 *7:53 0.248565
838 *7:50 *7:52 0.497131
839 *7:48 *7:51 1.4
840 *7:47 *7:50 1.4
841 *7:45 *958:CK 1.4
842 *7:45 *7:48 1.36716
843 *7:44 *7:47 0.124283
844 *7:44 *652:CK 1.4
845 *7:43 *7:45 1.11859
846 *7:42 *7:44 0.994261
847 *7:41 *7:43 1.4
848 *7:39 *7:42 1.4
849 *7:39 *7:41 0.497131
850 *7:38 *650:CK 1.4
851 *7:37 *7:39 1.86424
852 *7:36 *7:38 1.4
853 *7:35 *7:37 1.4
854 *7:34 *7:36 0.372849
855 *7:33 *7:35 0.124286
856 *7:33 *7:34 1.4
857 *7:30 *7:33 1.1186
858 *7:29 *888:CK 1.4
859 *7:28 *880:CK 1.4
860 *7:27 *7:30 1.4
861 *7:26 *7:29 0.124289
862 *7:25 *7:28 1.4
863 *7:25 *7:27 0.745698
864 *7:24 *7:26 1.4
865 *7:23 *7:25 0.124283
866 *7:22 *7:24 0.124283
867 *7:21 *7:23 1.4
868 *7:19 *7:22 1.4
869 *7:18 *7:21 1.1186
870 *7:18 *887:CK 1.4
871 *7:17 *7:19 0.99431
872 *7:14 *7:18 1.1186
873 *7:13 *7:17 1.4
874 *7:12 *835:CK 1.4
875 *7:11 *886:CK 1.4
876 *7:10 *7:14 1.4
877 *7:10 *7:13 0.124283
878 *7:9 *7:12 1.1186
879 *7:8 *7:11 1.4
880 *7:8 *7:10 2.98279
881 *7:7 *7:9 1.4
882 *7:7 *7:8 2.85851
883 *7:6 *7:7 0.372849
884 *7:5 *7:6 1.4
885 *7:4 *7:5 1.1186
886 *7:3 *7:4 1.4
887 *7:2 *7:3 0.124283
888 *7:1 *7:2 1.4
889 *889:CK *7:1 1.4
*END

*D_NET *8 0.138919

*CONN
*I *919:RN I *C 88.305 33.205 *L 0.00665 *D SDFFRHQX4
*I *947:RN I *C 82.505 37.555 *L 0.00665 *D SDFFRHQX4
*I *917:RN I *C 83.375 38.425 *L 0.00665 *D SDFFRHQX4
*I *920:RN I *C 82.795 48.865 *L 0.00665 *D SDFFRHQX4
*I *944:RN I *C 88.885 43.645 *L 0.00665 *D SDFFRHQX4
*I *945:RN I *C 88.015 58.435 *L 0.00665 *D SDFFRHQX4
*I *922:RN I *C 82.505 54.085 *L 0.00665 *D SDFFRHQX4
*I *921:RN I *C 88.305 53.215 *L 0.00665 *D SDFFRHQX4
*I *923:RN I *C 81.635 63.655 *L 0.00665 *D SDFFRHQX4
*I *918:RN I *C 81.635 64.525 *L 0.00665 *D SDFFRHQX4
*I *658:RN I *C 75.835 62.785 *L 0.00439 *D SDFFRHQX1
*I *869:RN I *C 87.435 68.295 *L 0.0103 *D SDFFRHQX8
*I *868:RN I *C 80.185 73.515 *L 0.0103 *D SDFFRHQX8
*I *957:RN I *C 81.635 74.965 *L 0.00665 *D SDFFRHQX4
*I *946:RN I *C 87.725 69.745 *L 0.00665 *D SDFFRHQX4
*I *652:RN I *C 76.125 75.835 *L 0.00439 *D SDFFRHQX1
*I *958:RN I *C 81.635 80.185 *L 0.00665 *D SDFFRHQX4
*I *956:RN I *C 82.215 84.535 *L 0.00665 *D SDFFRHQX4
*I *880:RN I *C 74.385 80.765 *L 0.0103 *D SDFFRHQX8
*I *881:RN I *C 86.855 85.985 *L 0.0103 *D SDFFRHQX8
*I *650:SN I *C 66.845 78.155 *L 0.00483 *D SDFFSHQX1
*I *887:RN I *C 68.875 83.955 *L 0.0103 *D SDFFRHQX8
*I *886:RN I *C 67.135 85.985 *L 0.0103 *D SDFFRHQX8
*I *889:RN I *C 59.305 89.175 *L 0.0103 *D SDFFRHQX8
*I *839:RN I *C 62.785 75.835 *L 0.00439 *D SDFFRHQX1
*I *888:RN I *C 69.455 89.175 *L 0.0103 *D SDFFRHQX8
*I *903:RN I *C 60.465 68.295 *L 0.0103 *D SDFFRHQX8
*I *577:RN I *C 59.015 73.225 *L 0.00439 *D SDFFRHQX1
*I *858:RN I *C 61.045 65.105 *L 0.0103 *D SDFFRHQX8
*I *649:SN I *C 65.685 67.715 *L 0.00483 *D SDFFSHQX1
*I *576:RN I *C 66.555 70.615 *L 0.00439 *D SDFFRHQX1
*I *882:RN I *C 54.085 65.395 *L 0.0036 *D SDFFRX1
*I *651:RN I *C 71.485 70.615 *L 0.00439 *D SDFFRHQX1
*I *659:RN I *C 65.975 60.175 *L 0.00439 *D SDFFRHQX1
*I *600:RN I *C 64.815 54.955 *L 0.00439 *D SDFFRHQX1
*I *648:RN I *C 71.775 57.565 *L 0.00439 *D SDFFRHQX1
*I *647:RN I *C 62.205 57.565 *L 0.00439 *D SDFFRHQX1
*I *575:RN I *C 51.765 62.785 *L 0.00439 *D SDFFRHQX1
*I *781:RN I *C 46.545 62.785 *L 0.00438 *D SDFFRHQX2
*I *588:RN I *C 52.635 57.565 *L 0.00439 *D SDFFRHQX1
*I *601:RN I *C 50.025 54.955 *L 0.00439 *D SDFFRHQX1
*I *905:RN I *C 44.515 59.885 *L 0.0103 *D SDFFRHQX8
*I *776:RN I *C 47.415 68.005 *L 0.00438 *D SDFFRHQX2
*I *584:RN I *C 41.035 57.565 *L 0.00439 *D SDFFRHQX1
*I *857:RN I *C 49.155 70.325 *L 0.0103 *D SDFFRHQX8
*I *580:RN I *C 39.585 54.955 *L 0.00439 *D SDFFRHQX1
*I *777:RN I *C 50.315 78.445 *L 0.00439 *D SDFFRHQX1
*I *895:RN I *C 51.765 81.055 *L 0.0036 *D SDFFRX1
*I *906:RN I *C 44.805 80.765 *L 0.0103 *D SDFFRHQX8
*I *899:RN I *C 39.005 85.985 *L 0.0103 *D SDFFRHQX8
*I *835:RN I *C 56.115 83.665 *L 0.00439 *D SDFFRHQX1
*I *822:RN I *C 29.435 54.955 *L 0.00439 *D SDFFRHQX1
*I *821:RN I *C 34.365 52.345 *L 0.00439 *D SDFFRHQX1
*I *856:RN I *C 46.255 85.985 *L 0.0103 *D SDFFRHQX8
*I *774:RN I *C 45.095 75.835 *L 0.00438 *D SDFFRHQX2
*I *788:RN I *C 27.115 60.175 *L 0.00438 *D SDFFRHQX2
*I *579:RN I *C 32.915 49.735 *L 0.00439 *D SDFFRHQX1
*I *907:RN I *C 37.555 83.955 *L 0.0103 *D SDFFRHQX8
*I *602:RN I *C 28.855 47.125 *L 0.00439 *D SDFFRHQX1
*I *900:RN I *C 32.335 89.175 *L 0.0103 *D SDFFRHQX8
*I *902:RN I *C 30.885 80.765 *L 0.0103 *D SDFFRHQX8
*I *603:RN I *C 36.975 44.515 *L 0.00439 *D SDFFRHQX1
*I *964:RN I *C 25.955 41.905 *L 0.0036 *D SDFFRX1
*I *933:RN I *C 21.605 44.515 *L 0.0036 *D SDFFRX1
*I *615:RN I *C 38.715 41.905 *L 0.00439 *D SDFFRHQX1
*I *599:RN I *C 35.815 39.295 *L 0.00439 *D SDFFRHQX1
*I *877:RN I *C 14.935 44.515 *L 0.0036 *D SDFFRX1
*I *526:RN I *C 45.095 41.905 *L 0.00439 *D SDFFRHQX1
*I *528:RN I *C 50.025 39.295 *L 0.00439 *D SDFFRHQX1
*I *667:RN I *C 20.735 49.735 *L 0.00439 *D SDFFRHQX1
*I *959:RN I *C 18.995 47.125 *L 0.0036 *D SDFFRX1
*I *870:RN I *C 22.475 39.295 *L 0.0036 *D SDFFRX1
*I *525:RN I *C 23.345 36.685 *L 0.00439 *D SDFFRHQX1
*I *682:RN I *C 55.245 41.905 *L 0.00359 *D SDFFRXL
*I *523:RN I *C 12.035 39.295 *L 0.00439 *D SDFFRHQX1
*I *669:RN I *C 10.875 41.905 *L 0.00439 *D SDFFRHQX1
*I *668:RN I *C 19.575 52.345 *L 0.00439 *D SDFFRHQX1
*I *928:RN I *C 27.405 32.335 *L 0.00665 *D SDFFRHQX4
*I *671:RN I *C 18.125 62.785 *L 0.00439 *D SDFFRHQX1
*I *683:RN I *C 56.985 44.515 *L 0.00359 *D SDFFRXL
*I *936:RN I *C 30.305 27.985 *L 0.00665 *D SDFFRHQX4
*I *931:RN I *C 7.105 32.335 *L 0.00665 *D SDFFRHQX4
*I *876:RN I *C 8.265 47.125 *L 0.0036 *D SDFFRX1
*I *672:RN I *C 17.835 57.565 *L 0.00439 *D SDFFRHQX1
*I *673:RN I *C 12.325 52.345 *L 0.00439 *D SDFFRHQX1
*I *896:RN I *C 14.065 33.205 *L 0.00665 *D SDFFRHQX4
*I *524:RN I *C 6.525 36.685 *L 0.00439 *D SDFFRHQX1
*I *607:RN I *C 62.495 47.125 *L 0.00439 *D SDFFRHQX1
*I *932:RN I *C 14.065 27.985 *L 0.00665 *D SDFFRHQX4
*I *897:RN I *C 7.105 17.545 *L 0.00665 *D SDFFRHQX4
*I *786:RN I *C 21.605 68.005 *L 0.00438 *D SDFFRHQX2
*I *666:RN I *C 13.775 54.955 *L 0.00439 *D SDFFRHQX1
*I *593:RN I *C 59.015 49.735 *L 0.00439 *D SDFFRHQX1
*I *916:RN I *C 7.975 27.115 *L 0.00665 *D SDFFRHQX4
*I *865:RN I *C 15.225 68.295 *L 0.0103 *D SDFFRHQX8
*I *841:RN I *C 32.915 23.635 *L 0.00439 *D SDFFRHQX1
*I *546:RN I *C 36.395 26.245 *L 0.00439 *D SDFFRHQX1
*I *929:RN I *C 27.115 22.765 *L 0.00665 *D SDFFRHQX4
*I *872:RN I *C 8.555 59.885 *L 0.0103 *D SDFFRHQX8
*I *790:RN I *C 21.025 74.965 *L 0.00665 *D SDFFRHQX4
*I *871:RN I *C 8.555 65.105 *L 0.0103 *D SDFFRHQX8
*I *867:RN I *C 8.555 70.325 *L 0.0103 *D SDFFRHQX8
*I *670:RN I *C 7.105 57.565 *L 0.00439 *D SDFFRHQX1
*I *948:RN I *C 13.195 21.895 *L 0.00665 *D SDFFRHQX4
*I *941:RN I *C 24.215 27.115 *L 0.00665 *D SDFFRHQX4
*I *965:RN I *C 13.775 16.675 *L 0.00665 *D SDFFRHQX4
*I *901:RN I *C 27.405 78.735 *L 0.0103 *D SDFFRHQX8
*I *549:RN I *C 42.775 23.635 *L 0.00439 *D SDFFRHQX1
*I *939:RN I *C 25.085 21.895 *L 0.00665 *D SDFFRHQX4
*I *968:RN I *C 14.065 12.325 *L 0.00665 *D SDFFRHQX4
*I *875:RN I *C 14.355 73.515 *L 0.0103 *D SDFFRHQX8
*I *547:RN I *C 36.685 21.025 *L 0.00439 *D SDFFRHQX1
*I *967:RN I *C 29.725 16.675 *L 0.00665 *D SDFFRHQX4
*I *960:RN I *C 26.825 11.455 *L 0.00665 *D SDFFRHQX4
*I *966:RN I *C 7.685 11.455 *L 0.00665 *D SDFFRHQX4
*I *785:RN I *C 25.085 73.225 *L 0.00438 *D SDFFRHQX2
*I *898:RN I *C 22.185 83.955 *L 0.0103 *D SDFFRHQX8
*I *873:RN I *C 15.225 80.765 *L 0.0103 *D SDFFRHQX8
*I *529:RN I *C 45.965 28.855 *L 0.00439 *D SDFFRHQX1
*I *598:RN I *C 41.035 28.855 *L 0.00439 *D SDFFRHQX1
*I *963:RN I *C 14.355 6.235 *L 0.00665 *D SDFFRHQX4
*I *874:RN I *C 7.685 75.545 *L 0.0103 *D SDFFRHQX8
*I *930:RN I *C 33.205 11.455 *L 0.00665 *D SDFFRHQX4
*I *961:RN I *C 27.115 12.325 *L 0.00665 *D SDFFRHQX4
*I *904:RN I *C 23.345 85.985 *L 0.0103 *D SDFFRHQX8
*I *866:RN I *C 8.265 83.955 *L 0.0103 *D SDFFRHQX8
*I *962:RN I *C 21.315 7.105 *L 0.00665 *D SDFFRHQX4
*I *949:RN I *C 26.535 6.235 *L 0.00665 *D SDFFRHQX4
*I *950:RN I *C 39.295 12.325 *L 0.00665 *D SDFFRHQX4
*I *942:RN I *C 34.075 7.105 *L 0.00665 *D SDFFRHQX4
*I *953:RN I *C 45.965 12.325 *L 0.00665 *D SDFFRHQX4
*I *952:RN I *C 46.255 6.235 *L 0.00665 *D SDFFRHQX4
*I *951:RN I *C 46.545 7.105 *L 0.00665 *D SDFFRHQX4
*I *940:RN I *C 51.475 11.455 *L 0.00665 *D SDFFRHQX4
*I *927:RN I *C 54.375 7.105 *L 0.00665 *D SDFFRHQX4
*I *538:RN I *C 52.925 15.805 *L 0.00439 *D SDFFRHQX1
*I *537:RN I *C 49.735 21.025 *L 0.00439 *D SDFFRHQX1
*I *924:RN I *C 59.305 12.325 *L 0.00665 *D SDFFRHQX4
*I *843:RN I *C 59.305 21.025 *L 0.00439 *D SDFFRHQX1
*I *909:RN I *C 59.595 6.235 *L 0.00665 *D SDFFRHQX4
*I *532:RN I *C 63.655 23.635 *L 0.00439 *D SDFFRHQX1
*I *955:RN I *C 68.295 17.545 *L 0.00665 *D SDFFRHQX4
*I *534:RN I *C 63.075 31.465 *L 0.00439 *D SDFFRHQX1
*I *914:RN I *C 69.165 22.765 *L 0.00665 *D SDFFRHQX4
*I *915:RN I *C 68.295 27.115 *L 0.00665 *D SDFFRHQX4
*I *937:RN I *C 74.095 16.675 *L 0.00665 *D SDFFRHQX4
*I *954:RN I *C 75.545 21.895 *L 0.00665 *D SDFFRHQX4
*I *934:RN I *C 73.225 12.325 *L 0.00665 *D SDFFRHQX4
*I *926:RN I *C 70.325 11.455 *L 0.00665 *D SDFFRHQX4
*I *912:RN I *C 81.635 21.895 *L 0.00665 *D SDFFRHQX4
*I *908:RN I *C 67.715 7.105 *L 0.00665 *D SDFFRHQX4
*I *925:RN I *C 72.645 6.235 *L 0.00665 *D SDFFRHQX4
*I *913:RN I *C 81.345 22.765 *L 0.00665 *D SDFFRHQX4
*I *943:RN I *C 80.475 7.105 *L 0.00665 *D SDFFRHQX4
*I *911:RN I *C 87.145 17.545 *L 0.00665 *D SDFFRHQX4
*I *910:RN I *C 81.055 16.675 *L 0.00665 *D SDFFRHQX4
*I *935:RN I *C 80.185 11.455 *L 0.00665 *D SDFFRHQX4
*I *938:RN I *C 85.985 6.235 *L 0.00665 *D SDFFRHQX4
*P *8 I *C 96.57 3.925 *L 0

*CAP
1 *8:2 0.000365355
2 *8:3 0.000365355
3 *8:4 0.000314605
4 *8:5 0.000377526
5 *8:6 0.000817972
6 *8:7 4.0595e-05
7 *8:8 0.000838946
8 *8:9 2.02975e-05
9 *8:10 4.0595e-05
10 *8:11 8.38946e-05
11 *8:12 2.02975e-05
12 *8:13 2.02975e-05
13 *8:15 2.02975e-05
14 *8:16 2.02975e-05
15 *8:19 0.000345057
16 *8:22 0.000284579
17 *8:23 0.000385652
18 *8:25 0.000813267
19 *8:26 6.08925e-05
20 *8:27 0.000225836
21 *8:28 0.000528688
22 *8:29 5.93605e-05
23 *8:30 0.00046142
24 *8:31 0.000578295
25 *8:32 0.000118721
26 *8:33 5.93605e-05
27 *8:34 0.00046142
28 *8:35 0.000352459
29 *8:36 1.97868e-05
30 *8:37 0.000178081
31 *8:41 1.97868e-05
32 *8:42 0.000117486
33 *8:43 5.93605e-05
34 *8:46 0.000176229
35 *8:47 5.87431e-05
36 *8:49 5.87431e-05
37 *8:51 0.000313297
38 *8:53 0.000254554
39 *8:54 0.000356976
40 *8:55 1.97868e-05
41 *8:56 0.000356976
42 *8:57 1.97868e-05
43 *8:59 0.000117486
44 *8:61 0.000469945
45 *8:62 0.000450364
46 *8:63 0.00043531
47 *8:64 0.000156648
48 *8:65 5.93605e-05
49 *8:66 0.000455097
50 *8:67 5.87431e-05
51 *8:68 3.95736e-05
52 *8:69 5.93605e-05
53 *8:70 1.97868e-05
54 *8:72 1.97868e-05
55 *8:73 3.95736e-05
56 *8:75 9.79052e-05
57 *8:77 0.000354552
58 *8:80 9.79052e-05
59 *8:81 0.000276668
60 *8:82 0.000490238
61 *8:85 0.000531041
62 *8:87 0.000155472
63 *8:88 0.000254374
64 *8:89 5.06544e-05
65 *8:91 0.000367641
66 *8:92 8.4424e-05
67 *8:93 5.06544e-05
68 *8:94 0.000367641
69 *8:95 0.000354581
70 *8:97 0.000469964
71 *8:98 0.000270157
72 *8:101 2.1362e-05
73 *8:102 0.00053405
74 *8:103 8.47913e-05
75 *8:106 0.000231091
76 *8:107 8.5448e-05
77 *8:108 8.47913e-05
78 *8:110 0.000378149
79 *8:111 0.000189692
80 *8:113 0.000399157
81 *8:114 6.4086e-05
82 *8:115 0.000389885
83 *8:116 0.000273108
84 *8:117 6.4086e-05
85 *8:118 6.4086e-05
86 *8:120 0.000200193
87 *8:121 2.10083e-05
88 *8:122 0.00064086
89 *8:123 6.4086e-05
90 *8:125 0.000310944
91 *8:126 0.00010681
92 *8:127 0.00064086
93 *8:130 0.000488627
94 *8:131 0.00010681
95 *8:132 2.10083e-05
96 *8:134 2.22436e-05
97 *8:135 0.000177683
98 *8:136 4.20166e-05
99 *8:137 2.10083e-05
100 *8:138 2.22436e-05
101 *8:139 0.000177949
102 *8:140 4.20166e-05
103 *8:143 0.000533847
104 *8:145 0.000111052
105 *8:146 0.000378142
106 *8:147 0.000111052
107 *8:148 4.44206e-05
108 *8:149 2.22436e-05
109 *8:151 0.000399786
110 *8:154 0.000421996
111 *8:155 0.000266924
112 *8:156 6.6631e-05
113 *8:157 6.67309e-05
114 *8:158 0.000266924
115 *8:159 0.000155705
116 *8:160 0.000645066
117 *8:162 0.000533048
118 *8:163 0.000155705
119 *8:165 0.000756284
120 *8:166 0.000533048
121 *8:167 0.000377575
122 *8:169 2.22103e-05
123 *8:170 0.000200193
124 *8:171 0.000133462
125 *8:172 0.000377575
126 *8:173 2.22103e-05
127 *8:174 6.6631e-05
128 *8:175 2.22436e-05
129 *8:176 2.22436e-05
130 *8:177 0.000111218
131 *8:180 0.000266524
132 *8:181 0.000466417
133 *8:183 0.000156192
134 *8:186 0.000222436
135 *8:187 0.000199893
136 *8:188 0.000466417
137 *8:189 0.000156192
138 *8:190 0.000222436
139 *8:191 2.22436e-05
140 *8:193 7.16519e-05
141 *8:195 2.22436e-05
142 *8:197 0.000501563
143 *8:199 2.36495e-05
144 *8:200 0.000668751
145 *8:201 0.000449341
146 *8:202 4.51402e-05
147 *8:203 0.00023884
148 *8:205 0.000425691
149 *8:206 4.51402e-05
150 *8:207 0.000165547
151 *8:209 4.77679e-05
152 *8:211 0.000165547
153 *8:212 4.77679e-05
154 *8:215 2.3884e-05
155 *8:216 0.000260145
156 *8:217 2.3884e-05
157 *8:218 9.45981e-05
158 *8:219 0.000165547
159 *8:221 0.000382143
160 *8:222 0.000286608
161 *8:223 0.000382143
162 *8:224 0.000453795
163 *8:225 0.000189196
164 *8:227 0.000167188
165 *8:228 0.000165547
166 *8:229 2.36495e-05
167 *8:230 0.000283794
168 *8:231 0.000191072
169 *8:233 0.000402042
170 *8:234 0.000984239
171 *8:236 2.3884e-05
172 *8:237 0.000118248
173 *8:238 0.000919037
174 *8:239 4.72991e-05
175 *8:240 2.3884e-05
176 *8:241 0.000191072
177 *8:242 0.000125869
178 *8:243 4.2457e-05
179 *8:244 4.72991e-05
180 *8:246 0.00023884
181 *8:247 0.000339656
182 *8:248 0.000148599
183 *8:250 0.000378392
184 *8:251 4.77679e-05
185 *8:252 0.000360884
186 *8:253 0.000106142
187 *8:254 0.000125869
188 *8:256 0.000378392
189 *8:258 0.000293695
190 *8:259 2.12285e-05
191 *8:260 6.29347e-05
192 *8:261 0.000125869
193 *8:262 2.3884e-05
194 *8:263 0.000314673
195 *8:264 8.39129e-05
196 *8:265 0.000251739
197 *8:267 0.000262724
198 *8:268 2.09782e-05
199 *8:269 0.000445798
200 *8:270 0.000465241
201 *8:271 0.000188804
202 *8:273 0.000449341
203 *8:274 0.000449324
204 *8:275 8.4914e-05
205 *8:276 0.000445798
206 *8:278 0.000381329
207 *8:279 0.00032023
208 *8:280 0.000638537
209 *8:281 4.72991e-05
210 *8:282 0.000444065
211 *8:283 8.4914e-05
212 *8:284 0.000146848
213 *8:285 2.36495e-05
214 *8:286 0.00032023
215 *8:287 2.3884e-05
216 *8:288 0.000189196
217 *8:289 4.72991e-05
218 *8:290 0.000160868
219 *8:291 0.00023358
220 *8:292 2.09782e-05
221 *8:294 0.000146848
222 *8:295 2.36495e-05
223 *8:297 2.3884e-05
224 *8:298 0.000406027
225 *8:300 0.000160868
226 *8:301 0.000505584
227 *8:302 2.09782e-05
228 *8:303 0.000106142
229 *8:307 0.000406027
230 *8:310 2.29811e-05
231 *8:311 0.00064347
232 *8:313 0.000488255
233 *8:317 0.000163506
234 *8:318 2.3358e-05
235 *8:319 0.000160868
236 *8:321 0.000488255
237 *8:322 0.000163506
238 *8:323 2.3358e-05
239 *8:324 0.000140148
240 *8:326 0.000377608
241 *8:327 0.000106142
242 *8:328 0.000137886
243 *8:330 0.000140148
244 *8:331 0.000377608
245 *8:332 0.00023076
246 *8:333 0.000137886
247 *8:334 6.84087e-05
248 *8:336 0.00023076
249 *8:337 2.3358e-05
250 *8:338 0.000397089
251 *8:340 0.000256938
252 *8:341 0.00025035
253 *8:342 0.000372504
254 *8:344 0.00023358
255 *8:345 0.000386904
256 *8:346 4.55181e-05
257 *8:347 4.3824e-05
258 *8:348 0.000229811
259 *8:350 0.000136554
260 *8:351 4.55181e-05
261 *8:352 0.000182072
262 *8:353 0.00064347
263 *8:354 9.19243e-05
264 *8:355 0.00021912
265 *8:357 0.000503976
266 *8:358 0.000182072
267 *8:359 0.000896262
268 *8:360 2.3358e-05
269 *8:361 0.000186864
270 *8:362 0.00021912
271 *8:363 0.000701184
272 *8:364 2.1912e-05
273 *8:365 0.000390678
274 *8:366 2.3358e-05
275 *8:367 2.3358e-05
276 *8:368 0.000186864
277 *8:369 6.82771e-05
278 *8:371 0.000197208
279 *8:372 0.000153384
280 *8:373 0.000256938
281 *8:374 2.3358e-05
282 *8:377 0.000273109
283 *8:379 0.000204831
284 *8:380 0.000182072
285 *8:381 0.000131472
286 *8:382 7.00739e-05
287 *8:383 0.000186864
288 *8:385 4.3824e-05
289 *8:386 0.000204831
290 *8:387 0.000204831
291 *8:388 0.000364145
292 *8:389 2.2759e-05
293 *8:390 0.000403421
294 *8:392 4.3824e-05
295 *8:393 2.1912e-05
296 *8:394 2.1912e-05
297 *8:395 0.000182072
298 *8:397 2.2759e-05
299 *8:398 0.00051345
300 *8:400 0.000197208
301 *8:401 0.00010956
302 *8:402 8.7648e-05
303 *8:404 0.00011003
304 *8:405 4.66869e-05
305 *8:407 0.000175296
306 *8:409 0.000204831
307 *8:410 0.000197208
308 *8:411 0.000197208
309 *8:412 0.000256778
310 *8:413 4.66869e-05
311 *8:414 0.000341386
312 *8:416 0.000614494
313 *8:418 0.00010956
314 *8:419 2.22693e-05
315 *8:420 0.00010956
316 *8:421 0.000256778
317 *8:423 0.000341386
318 *8:425 0.000409663
319 *8:427 0.000432422
320 *8:428 2.22693e-05
321 *8:429 4.40487e-05
322 *8:430 2.20059e-05
323 *8:431 0.000136283
324 *8:432 0.00043824
325 *8:433 0.000432422
326 *8:435 0.0004143
327 *8:436 0.000198054
328 *8:437 0.000366094
329 *8:438 0.00010956
330 *8:439 0.000372504
331 *8:440 8.7648e-05
332 *8:441 0.000762282
333 *8:442 0.000409345
334 *8:443 0.000176048
335 *8:444 9.33737e-05
336 *8:445 0.000229811
337 *8:447 6.82771e-05
338 *8:448 0.000204831
339 *8:449 4.3824e-05
340 *8:450 8.7648e-05
341 *8:451 0.000740502
342 *8:452 2.04672e-05
343 *8:453 0.000409345
344 *8:454 0.000116717
345 *8:455 9.33737e-05
346 *8:456 0.00035037
347 *8:458 0.00047794
348 *8:459 0.000204831
349 *8:460 0.000136554
350 *8:461 2.2759e-05
351 *8:462 0.00043559
352 *8:464 2.04672e-05
353 *8:465 0.000196015
354 *8:466 0.000116717
355 *8:468 0.000663627
356 *8:469 4.3824e-05
357 *8:470 0.000409663
358 *8:471 8.7648e-05
359 *8:472 0.000546217
360 *8:473 2.2759e-05
361 *8:474 8.71179e-05
362 *8:475 0.000245607
363 *8:477 0.000239574
364 *8:478 2.17795e-05
365 *8:479 0.000264071
366 *8:481 0.000334782
367 *8:482 4.3824e-05
368 *8:483 4.3824e-05
369 *8:484 8.7648e-05
370 *8:486 0.00104134
371 *8:488 0.000204672
372 *8:489 0.000245607
373 *8:491 6.53384e-05
374 *8:492 0.000102336
375 *8:494 0.000242065
376 *8:495 2.20059e-05
377 *8:496 0.000190408
378 *8:497 2.15241e-05
379 *8:499 4.3824e-05
380 *8:501 6.5736e-05
381 *8:502 0.000718268
382 *8:503 0.000204672
383 *8:504 4.3559e-05
384 *8:505 0.000266074
385 *8:506 0.000102336
386 *8:508 0.000210091
387 *8:509 0.000444286
388 *8:510 0.000232721
389 *8:514 6.5736e-05
390 *8:515 0.000388195
391 *8:516 8.65914e-05
392 *8:517 2.17795e-05
393 *8:518 0.000566266
394 *8:519 0.000266074
395 *8:522 0.000210091
396 *8:523 0.000253878
397 *8:524 2.15241e-05
398 *8:525 0.000335884
399 *8:528 0.000407605
400 *8:530 2.17795e-05
401 *8:531 0.000800108
402 *8:533 0.000130677
403 *8:536 0.000194634
404 *8:537 2.15241e-05
405 *8:538 6.45723e-05
406 *8:539 0.000122572
407 *8:541 1.94098e-05
408 *8:542 0.000238126
409 *8:544 0.000277401
410 *8:545 4.09345e-05
411 *8:546 0.000304913
412 *8:547 0.00017311
413 *8:548 2.15241e-05
414 *8:550 6.45723e-05
415 *8:551 0.000263663
416 *8:552 1.94098e-05
417 *8:553 0.000151535
418 *8:554 0.000238126
419 *8:555 1.82017e-05
420 *8:556 4.09345e-05
421 *8:557 0.000566266
422 *8:558 0.000102336
423 *8:560 4.2313e-05
424 *8:562 0.000263663
425 *8:563 0.000129887
426 *8:564 0.000476253
427 *8:565 1.94098e-05
428 *8:566 0.00029274
429 *8:568 0.000784061
430 *8:570 0.000102336
431 *8:571 0.000444286
432 *8:572 0.00010956
433 *8:573 0.000519548
434 *8:574 3.88195e-05
435 *8:575 0.000389661
436 *8:576 1.94098e-05
437 *8:577 0.000359453
438 *8:578 0.000143663
439 *8:580 0.000631605
440 *8:583 0.00042313
441 *8:584 0.000193717
442 *8:585 0.00010956
443 *8:586 1.94098e-05
444 *8:587 0.000389661
445 *8:588 3.88195e-05
446 *8:589 5.82293e-05
447 *8:590 6.49435e-05
448 *8:592 8.4914e-05
449 *8:593 0.000449437
450 *8:594 0.000143663
451 *8:595 0.000239574
452 *8:598 2.11565e-05
453 *8:599 0.000404855
454 *8:600 0.000193717
455 *8:602 1.94098e-05
456 *8:603 0.000101416
457 *8:605 5.82293e-05
458 *8:606 1.94098e-05
459 *8:609 0.000449437
460 *8:610 0.000436841
461 *8:611 0.000450279
462 *8:613 0.000404855
463 *8:614 2.11565e-05
464 *8:617 0.00031298
465 *8:620 0.000368785
466 *8:622 8.34601e-05
467 *8:623 1.82017e-05
468 *8:624 0.000418639
469 *8:625 0.000409345
470 *8:626 4.09345e-05
471 *8:628 0.000390678
472 *8:629 2.11565e-05
473 *8:631 0.000211565
474 *8:632 0.000387434
475 *8:634 0.000389661
476 *8:635 0.000349376
477 *8:636 8.34601e-05
478 *8:637 0.000179579
479 *8:638 1.79579e-05
480 *8:640 0.000152456
481 *8:641 0.000275773
482 *8:642 0.000114905
483 *8:645 0.000387434
484 *8:646 0.000389661
485 *8:649 0.000305285
486 *8:650 1.79579e-05
487 *8:652 0.000709541
488 *8:657 6.34694e-05
489 *8:659 9.70488e-05
490 *8:662 0.000125705
491 *8:665 0.000557084
492 *8:666 2.04672e-05
493 *8:669 0.000465443
494 *8:670 4.2313e-05
495 *8:671 9.70488e-05
496 *8:672 7.28068e-05
497 *8:673 1.82017e-05
498 *8:674 2.04672e-05
499 *8:675 0.000444286
500 *8:676 6.45723e-05
501 *8:677 0.000322861
502 *8:679 7.28068e-05
503 *8:680 1.82017e-05
504 *8:682 2.15241e-05
505 *8:683 6.45723e-05
506 *8:684 0.000322861
507 *8:690 2.15241e-05
508 *8:692 0.000351996
509 *8:695 0.000126939
510 *8:696 2.11565e-05
511 *8:697 0.000330839
512 *8:698 0.000444286
513 *8:699 6.45723e-05
514 *8:701 0.000317347
515 *8:702 0.000301337
516 *8:703 6.45723e-05
517 *8:705 8.60963e-05
518 *8:706 0.000301337
519 *8:708 8.60963e-05
520 *8:709 6.34694e-05
521 *8:710 0.000486599
522 *8:712 6.34694e-05
523 *8:713 0.000486599
524 *8:715 0.000301337
525 *8:718 0.000301337
526 *8:719 2.11565e-05
527 *8:720 4.2313e-05
528 *8:721 0.000380817
529 *8:722 0.000150669
530 *8:723 0.00035966
531 *8:724 8.60963e-05
532 *8:725 0.000150669
533 *8:726 0.000322861
534 *8:727 8.60963e-05
535 *8:729 0.000559626
536 *8:730 8.60963e-05
537 *8:732 0.000710295
538 *8:734 0.000204382
539 *8:735 0.000387434
540 *8:736 0.000103388
541 *8:737 0.000547762
542 *8:738 0.000126939
543 *8:739 0.000103388
544 *8:740 0.000363579
545 *8:742 0.000126939
546 *8:744 0.000383831
547 *8:745 2.01988e-05
548 *8:749 0.00102355
549 *8:750 6.39719e-05
550 *8:752 0.000767662
551 *8:754 6.39719e-05
552 *8:755 0.000127944
553 *8:758 0.000141392
554 *8:759 0.000141392
555 *8:760 6.39719e-05
556 *8:761 6.39719e-05
557 *8:762 0.000161591
558 *8:763 0.000181789
559 *8:764 0.000323181
560 *8:766 0.000323181
561 *8:767 0.000613107
562 *8:769 2.01988e-05
563 *8:770 6.39719e-05
564 *8:771 0.000613107
565 *8:772 0.000262956
566 *8:773 0.000447803
567 *8:774 6.60178e-05
568 *8:775 0.000262956
569 *8:776 6.05964e-05
570 *8:777 0.000383831
571 *8:778 6.60178e-05
572 *8:779 2.20059e-05
573 *8:780 6.05964e-05
574 *8:781 0.000383777
575 *8:784 2.20059e-05
576 *8:786 0.000403976
577 *8:790 2.01988e-05
578 *8:791 6.39719e-05
579 *8:793 0.000319859
580 *8:794 0.000447803
581 *8:795 0.000319859
582 *8:796 2.01988e-05
583 *8:797 0.000554423
584 *8:798 0.000100994
585 *8:799 2.01988e-05
586 *8:800 4.03976e-05
587 *8:801 0.000170592
588 *8:802 0.000411462
589 *8:804 0.000242386
590 *8:805 2.01988e-05
591 *8:806 0.000365196
592 *8:809 6.39719e-05
593 *8:810 0.000201988
594 *8:811 2.01988e-05
595 *8:812 9.12145e-05
596 *8:813 0.000145553
597 *8:815 6.39719e-05
598 *8:816 0.000319859
599 *8:817 0.00021324
600 *8:818 3.64858e-05
601 *8:819 5.45823e-05
602 *8:820 0.000145553
603 *8:823 0.000319859
604 *8:824 0.00021324
605 *8:826 5.45823e-05
606 *8:827 1.82429e-05
607 *8:828 0.000181789
608 *8:829 0.000100994
609 *8:831 1.82429e-05
610 *8:832 1.82429e-05
611 *8:833 0.000181789
612 *8:834 0.000100994
613 *8:835 1.82429e-05
614 *8:836 0.000127359
615 *8:840 0.000509434
616 *8:844 3.64858e-05
617 *8:845 0.000654987
618 *8:846 0.000419587
619 *8:847 1.82429e-05
620 *8:848 0.000345688
621 *8:849 0.000383101
622 *8:850 5.45823e-05
623 *8:851 1.82429e-05
624 *8:853 7.27763e-05
625 *8:855 5.45823e-05
626 *8:857 0.000346615
627 *8:861 0.00100336
628 *8:862 0.000656744
629 *8:863 1.81941e-05
630 *8:864 0.000127359
631 *8:865 1.81941e-05
632 *8:866 0.000127359
633 *8:868 9.12145e-06
634 *8:869 9.75051e-06
635 *8 6.29065e-07

*RES
1 *8:869 *8 0.00428563
2 *8:868 *8:869 0.0621417
3 *8:866 *8:868 1.4
4 *8:865 *938:RN 1.4
5 *8:864 *8:866 0.869984
6 *8:863 *8:865 0.124283
7 *8:862 *8:864 1.4
8 *8:861 *8:863 1.4
9 *8:861 *8:862 4.4742
10 *8:857 *8:861 2.36138
11 *8:856 *935:RN 1.4
12 *8:855 *910:RN 1.4
13 *8:854 *911:RN 1.4
14 *8:853 *8:857 1.4
15 *8:851 *8:856 1.4
16 *8:850 *8:855 0.37285
17 *8:849 *8:854 1.4
18 *8:848 *8:853 0.497134
19 *8:848 *943:RN 1.4
20 *8:847 *8:851 0.124283
21 *8:846 *8:850 1.4
22 *8:846 *8:849 2.60995
23 *8:845 *8:848 1.86425
24 *8:845 *8:847 1.4
25 *8:844 *8:846 0.248567
26 *8:840 *8:845 2.60995
27 *8:840 *8:844 1.4
28 *8:839 *913:RN 1.4
29 *8:838 *925:RN 1.4
30 *8:837 *908:RN 1.4
31 *8:836 *8:840 0.869984
32 *8:835 *8:839 1.4
33 *8:834 *8:838 1.4
34 *8:833 *8:837 1.4
35 *8:832 *8:836 1.4
36 *8:831 *8:835 0.124283
37 *8:829 *8:834 0.621442
38 *8:828 *8:833 1.11859
39 *8:827 *8:832 0.124283
40 *8:826 *8:831 1.4
41 *8:825 *912:RN 1.4
42 *8:824 *8:829 1.4
43 *8:823 *8:828 1.4
44 *8:820 *8:827 1.4
45 *8:819 *8:826 0.37285
46 *8:818 *8:825 1.4
47 *8:817 *8:824 1.24283
48 *8:816 *8:823 1.86424
49 *8:816 *926:RN 1.4
50 *8:815 *934:RN 1.4
51 *8:813 *8:820 0.994267
52 *8:812 *8:819 1.4
53 *8:812 *8:818 0.248567
54 *8:811 *8:817 1.4
55 *8:810 *8:816 1.4
56 *8:809 *8:815 0.372848
57 *8:807 *954:RN 1.4
58 *8:806 *8:813 1.4
59 *8:806 *8:812 0.37285
60 *8:805 *8:811 0.124288
61 *8:804 *8:810 1.24288
62 *8:804 *8:809 1.4
63 *8:803 *937:RN 1.4
64 *8:802 *8:807 1.4
65 *8:802 *8:806 1.98858
66 *8:801 *8:805 1.4
67 *8:800 *8:804 0.248577
68 *8:799 *8:803 1.4
69 *8:798 *8:802 0.621442
70 *8:797 *8:801 0.994261
71 *8:797 *8:800 1.4
72 *8:796 *8:799 0.124288
73 *8:795 *8:798 1.4
74 *8:794 *8:797 2.23709
75 *8:794 *8:796 1.4
76 *8:793 *8:795 1.86424
77 *8:791 *8:794 0.372848
78 *8:790 *8:793 1.4
79 *8:788 *915:RN 1.4
80 *8:786 *8:791 1.4
81 *8:786 *8:790 0.124288
82 *8:785 *914:RN 1.4
83 *8:784 *8:788 1.4
84 *8:783 *534:RN 1.4
85 *8:781 *8:786 2.36148
86 *8:780 *8:785 1.4
87 *8:779 *8:784 0.124289
88 *8:778 *8:783 1.4
89 *8:777 *955:RN 1.4
90 *8:777 *8:781 1.4
91 *8:776 *8:780 0.372865
92 *8:775 *8:779 1.4
93 *8:774 *8:778 0.372866
94 *8:773 *8:777 2.23709
95 *8:773 *8:776 1.4
96 *8:772 *8:775 1.49139
97 *8:771 *8:774 1.4
98 *8:770 *8:773 0.372848
99 *8:769 *8:772 1.4
100 *8:767 *8:771 3.35563
101 *8:766 *8:770 1.4
102 *8:766 *8:769 0.124288
103 *8:765 *532:RN 1.4
104 *8:764 *8:767 1.4
105 *8:764 *8:766 1.86432
106 *8:763 *8:765 1.4
107 *8:763 *8:764 0.124288
108 *8:762 *8:763 0.994306
109 *8:761 *8:762 1.4
110 *8:760 *8:761 0.372848
111 *8:759 *8:760 1.4
112 *8:758 *8:759 0.870018
113 *8:755 *8:758 1.4
114 *8:754 *909:RN 1.4
115 *8:752 *843:RN 1.4
116 *8:752 *8:755 0.745696
117 *8:750 *8:754 0.372848
118 *8:749 *924:RN 1.4
119 *8:749 *8:752 3.72848
120 *8:747 *537:RN 1.4
121 *8:745 *8:750 1.4
122 *8:744 *8:749 2.23709
123 *8:743 *538:RN 1.4
124 *8:742 *8:747 1.4
125 *8:741 *927:RN 1.4
126 *8:740 *8:745 0.124288
127 *8:740 *8:744 1.4
128 *8:739 *8:743 1.4
129 *8:738 *8:742 0.74573
130 *8:737 *8:741 1.4
131 *8:737 *8:740 2.1129
132 *8:736 *8:739 0.621442
133 *8:735 *8:738 1.4
134 *8:734 *8:737 1.24288
135 *8:732 *8:736 1.4
136 *8:732 *8:735 2.23719
137 *8:730 *8:734 1.4
138 *8:729 *940:RN 1.4
139 *8:729 *8:732 1.86433
140 *8:727 *951:RN 1.4
141 *8:726 *8:730 0.497154
142 *8:726 *8:729 1.36717
143 *8:725 *952:RN 1.4
144 *8:724 *8:727 0.497154
145 *8:723 *8:726 1.4
146 *8:722 *8:725 0.870019
147 *8:721 *8:724 1.4
148 *8:721 *8:723 2.1129
149 *8:720 *8:722 1.4
150 *8:720 *8:721 0.124288
151 *8:719 *8:720 0.124288
152 *8:718 *8:719 1.4
153 *8:715 *8:718 1.74004
154 *8:715 *953:RN 1.4
155 *8:714 *942:RN 1.4
156 *8:713 *8:715 1.4
157 *8:712 *8:714 1.4
158 *8:710 *8:713 2.85863
159 *8:709 *8:712 0.372865
160 *8:708 *950:RN 1.4
161 *8:708 *8:710 1.4
162 *8:706 *8:709 1.4
163 *8:705 *8:708 0.497154
164 *8:703 *949:RN 1.4
165 *8:702 *8:706 1.74004
166 *8:701 *8:705 1.4
167 *8:700 *962:RN 1.4
168 *8:699 *8:703 0.372865
169 *8:698 *8:702 1.4
170 *8:698 *8:701 1.86433
171 *8:697 *8:700 1.4
172 *8:696 *8:699 1.4
173 *8:695 *8:698 0.74573
174 *8:692 *8:697 2.11291
175 *8:692 *8:696 0.124288
176 *8:690 *8:695 1.4
177 *8:687 *866:RN 1.4
178 *8:686 *904:RN 1.4
179 *8:684 *8:692 1.4
180 *8:683 *961:RN 1.4
181 *8:682 *8:690 0.124288
182 *8:682 *930:RN 1.4
183 *8:681 *874:RN 1.4
184 *8:680 *8:687 1.4
185 *8:679 *8:686 1.4
186 *8:678 *963:RN 1.4
187 *8:677 *8:684 1.86433
188 *8:676 *8:683 0.372865
189 *8:675 *8:682 1.4
190 *8:674 *8:681 1.4
191 *8:673 *8:680 0.124283
192 *8:672 *8:679 0.497134
193 *8:671 *8:678 1.4
194 *8:670 *8:677 1.4
195 *8:669 *8:676 1.4
196 *8:669 *8:675 2.61006
197 *8:666 *8:674 0.124283
198 *8:665 *8:673 1.4
199 *8:662 *8:672 1.4
200 *8:659 *8:671 0.621444
201 *8:657 *8:670 0.248577
202 *8:657 *8:669 0.124288
203 *8:654 *598:RN 1.4
204 *8:653 *529:RN 1.4
205 *8:652 *8:666 1.4
206 *8:652 *8:665 3.60422
207 *8:650 *873:RN 1.4
208 *8:649 *898:RN 1.4
209 *8:649 *8:662 0.869985
210 *8:648 *785:RN 1.4
211 *8:647 *966:RN 1.4
212 *8:646 *8:659 1.4
213 *8:645 *960:RN 1.4
214 *8:645 *8:657 1.4
215 *8:644 *967:RN 1.4
216 *8:643 *547:RN 1.4
217 *8:642 *8:654 1.4
218 *8:641 *8:653 1.4
219 *8:640 *8:652 0.869979
220 *8:639 *875:RN 1.4
221 *8:638 *8:650 0.124284
222 *8:637 *8:649 1.24284
223 *8:636 *8:648 1.4
224 *8:635 *8:647 1.4
225 *8:634 *8:646 2.23719
226 *8:632 *8:645 2.23719
227 *8:631 *8:644 1.4
228 *8:629 *8:643 1.4
229 *8:628 *8:642 0.621444
230 *8:628 *8:641 1.49146
231 *8:626 *8:640 1.4
232 *8:625 *8:639 1.4
233 *8:624 *8:638 1.4
234 *8:623 *8:637 1.4
235 *8:622 *8:636 0.497132
236 *8:620 *8:635 2.2372
237 *8:620 *8:634 1.4
238 *8:619 *968:RN 1.4
239 *8:617 *8:632 1.4
240 *8:617 *8:631 1.24288
241 *8:616 *939:RN 1.4
242 *8:614 *8:629 0.124288
243 *8:613 *8:628 1.4
244 *8:612 *549:RN 1.4
245 *8:611 *8:626 0.248566
246 *8:611 *8:625 2.48566
247 *8:610 *8:624 2.85852
248 *8:610 *8:623 0.124283
249 *8:609 *8:622 1.4
250 *8:608 *901:RN 1.4
251 *8:606 *8:620 0.124289
252 *8:605 *8:619 1.4
253 *8:604 *965:RN 1.4
254 *8:603 *8:617 0.621443
255 *8:602 *8:616 1.4
256 *8:601 *941:RN 1.4
257 *8:600 *8:614 1.4
258 *8:599 *8:613 2.23719
259 *8:598 *8:612 1.4
260 *8:595 *8:611 1.4
261 *8:594 *8:610 1.4
262 *8:593 *8:609 2.36137
263 *8:592 *8:608 1.4
264 *8:591 *948:RN 1.4
265 *8:590 *8:606 1.4
266 *8:589 *8:605 0.372866
267 *8:588 *8:604 1.4
268 *8:587 *8:603 1.4
269 *8:586 *8:602 0.124289
270 *8:585 *8:601 1.4
271 *8:584 *8:600 1.1186
272 *8:583 *8:599 1.4
273 *8:583 *8:598 0.124288
274 *8:582 *670:RN 1.4
275 *8:580 *867:RN 1.4
276 *8:580 *8:595 1.36711
277 *8:578 *8:594 0.994269
278 *8:577 *8:593 1.4
279 *8:577 *8:592 0.497132
280 *8:576 *8:591 1.4
281 *8:575 *8:590 0.372864
282 *8:575 *8:589 1.4
283 *8:574 *8:588 0.248578
284 *8:573 *8:587 2.23719
285 *8:573 *8:586 1.4
286 *8:572 *8:585 0.621415
287 *8:571 *8:584 1.4
288 *8:571 *8:583 2.36148
289 *8:570 *8:582 1.4
290 *8:568 *871:RN 1.4
291 *8:568 *8:580 2.23709
292 *8:567 *790:RN 1.4
293 *8:566 *8:578 1.4
294 *8:566 *8:577 1.86425
295 *8:565 *8:576 0.124289
296 *8:564 *8:575 1.86432
297 *8:564 *8:574 1.4
298 *8:563 *8:573 0.745729
299 *8:562 *8:572 1.4
300 *8:560 *8:571 0.248577
301 *8:558 *8:570 0.621415
302 *8:557 *872:RN 1.4
303 *8:557 *8:568 2.23709
304 *8:556 *8:567 1.4
305 *8:555 *8:566 0.124283
306 *8:554 *8:565 1.4
307 *8:553 *8:564 0.870017
308 *8:552 *8:563 1.4
309 *8:551 *8:562 1.49146
310 *8:550 *929:RN 1.4
311 *8:548 *8:560 1.4
312 *8:547 *546:RN 1.4
313 *8:546 *8:558 1.4
314 *8:546 *8:557 0.994261
315 *8:545 *8:556 0.248566
316 *8:544 *8:555 1.4
317 *8:542 *8:554 1.36717
318 *8:541 *8:553 1.4
319 *8:539 *8:552 0.124289
320 *8:539 *8:551 1.4
321 *8:538 *8:550 0.372865
322 *8:537 *841:RN 1.4
323 *8:536 *8:548 0.124288
324 *8:536 *8:547 0.994307
325 *8:533 *8:546 0.745696
326 *8:531 *8:545 1.4
327 *8:531 *8:544 1.61568
328 *8:530 *865:RN 1.4
329 *8:528 *8:542 1.4
330 *8:528 *8:541 0.124289
331 *8:527 *916:RN 1.4
332 *8:525 *8:539 0.621442
333 *8:525 *8:538 1.4
334 *8:524 *8:537 0.124288
335 *8:523 *8:536 1.4
336 *8:522 *593:RN 1.4
337 *8:520 *666:RN 1.4
338 *8:519 *8:533 1.4
339 *8:518 *786:RN 1.4
340 *8:518 *8:531 2.98278
341 *8:517 *8:530 0.124283
342 *8:516 *897:RN 1.4
343 *8:515 *8:528 2.48577
344 *8:514 *8:527 1.4
345 *8:512 *932:RN 1.4
346 *8:510 *8:525 1.36717
347 *8:509 *8:524 1.4
348 *8:509 *8:523 1.49146
349 *8:508 *8:522 1.11854
350 *8:507 *607:RN 1.4
351 *8:506 *8:520 1.4
352 *8:505 *8:519 1.61568
353 *8:504 *8:518 0.248565
354 *8:503 *8:517 1.4
355 *8:502 *8:516 0.497153
356 *8:502 *8:515 1.4
357 *8:501 *8:514 0.372849
358 *8:500 *524:RN 1.4
359 *8:499 *8:512 1.4
360 *8:498 *896:RN 1.4
361 *8:497 *8:510 1.4
362 *8:496 *8:509 1.1186
363 *8:495 *8:508 1.4
364 *8:494 *8:507 1.4
365 *8:492 *8:506 0.621415
366 *8:491 *8:505 1.4
367 *8:489 *8:504 1.4
368 *8:488 *8:503 1.24283
369 *8:486 *8:502 3.60436
370 *8:486 *8:501 1.4
371 *8:484 *8:500 1.4
372 *8:483 *8:499 0.248566
373 *8:482 *8:498 1.4
374 *8:481 *8:497 0.124288
375 *8:481 *8:496 1.4
376 *8:479 *8:495 0.124289
377 *8:479 *8:494 1.36718
378 *8:478 *673:RN 1.4
379 *8:477 *8:492 1.4
380 *8:477 *8:491 0.372848
381 *8:476 *672:RN 1.4
382 *8:475 *8:489 1.4914
383 *8:474 *8:488 1.4
384 *8:473 *876:RN 1.4
385 *8:472 *8:486 2.2372
386 *8:472 *931:RN 1.4
387 *8:471 *8:484 0.497132
388 *8:470 *8:483 1.4
389 *8:469 *8:482 0.248566
390 *8:468 *8:481 1.74004
391 *8:468 *936:RN 1.4
392 *8:466 *8:479 1.4
393 *8:465 *8:478 0.124283
394 *8:465 *8:477 0.994261
395 *8:464 *8:476 1.4
396 *8:462 *8:475 1.4
397 *8:462 *8:474 0.497131
398 *8:461 *8:473 0.124289
399 *8:460 *8:472 0.745732
400 *8:459 *8:471 1.4
401 *8:458 *8:470 2.2372
402 *8:458 *8:469 1.4
403 *8:456 *8:468 1.86433
404 *8:455 *683:RN 1.4
405 *8:454 *8:466 0.621413
406 *8:453 *8:465 1.4
407 *8:452 *8:464 0.124283
408 *8:451 *671:RN 1.4
409 *8:451 *8:462 1.98852
410 *8:450 *8:461 1.4
411 *8:449 *8:460 1.4
412 *8:448 *8:459 1.1186
413 *8:447 *8:458 0.372866
414 *8:446 *928:RN 1.4
415 *8:445 *8:456 1.4
416 *8:444 *8:455 0.497131
417 *8:443 *8:454 1.4
418 *8:442 *8:453 2.48566
419 *8:441 *8:452 1.4
420 *8:441 *8:451 2.23709
421 *8:440 *8:450 0.497132
422 *8:439 *8:449 0.248566
423 *8:439 *8:448 1.4
424 *8:438 *8:447 1.4
425 *8:437 *8:446 1.4
426 *8:437 *8:445 1.24289
427 *8:436 *8:444 1.4
428 *8:436 *8:443 0.99431
429 *8:435 *8:442 1.4
430 *8:435 *8:441 2.11281
431 *8:433 *8:440 1.4
432 *8:432 *8:439 1.86425
433 *8:432 *8:438 0.621415
434 *8:431 *8:437 0.745724
435 *8:430 *8:436 0.124289
436 *8:429 *8:435 0.248568
437 *8:428 *668:RN 1.4
438 *8:427 *8:433 2.36149
439 *8:425 *8:432 1.4
440 *8:423 *8:431 1.4
441 *8:421 *8:430 1.4
442 *8:420 *8:429 1.4
443 *8:419 *8:428 0.124286
444 *8:418 *8:427 1.4
445 *8:417 *669:RN 1.4
446 *8:416 *8:425 2.2372
447 *8:416 *523:RN 1.4
448 *8:414 *8:423 1.86433
449 *8:413 *682:RN 1.4
450 *8:412 *8:421 1.36711
451 *8:411 *8:420 0.621415
452 *8:411 *8:419 1.4
453 *8:410 *8:418 0.621415
454 *8:410 *8:417 1.4
455 *8:409 *8:416 1.1186
456 *8:408 *525:RN 1.4
457 *8:407 *8:414 1.4
458 *8:405 *8:413 0.248565
459 *8:404 *8:412 1.4
460 *8:402 *8:411 0.497132
461 *8:401 *8:410 0.497132
462 *8:401 *8:409 1.4
463 *8:400 *8:408 1.4
464 *8:400 *8:407 0.994264
465 *8:399 *870:RN 1.4
466 *8:398 *8:405 1.4
467 *8:398 *8:404 0.621444
468 *8:397 *959:RN 1.4
469 *8:395 *8:402 1.4
470 *8:394 *8:401 0.124283
471 *8:393 *8:400 0.124283
472 *8:392 *8:399 1.4
473 *8:390 *8:398 2.2372
474 *8:389 *8:397 0.124289
475 *8:388 *667:RN 1.4
476 *8:388 *8:395 0.99431
477 *8:387 *8:394 1.4
478 *8:386 *8:393 1.4
479 *8:385 *8:392 0.248566
480 *8:383 *528:RN 1.4
481 *8:382 *8:390 1.4
482 *8:381 *8:389 1.4
483 *8:380 *8:388 0.99431
484 *8:379 *8:387 1.1186
485 *8:377 *8:386 1.1186
486 *8:377 *8:385 1.4
487 *8:374 *526:RN 1.4
488 *8:373 *8:383 0.99431
489 *8:373 *8:382 0.372866
490 *8:372 *8:381 0.745698
491 *8:372 *8:380 1.4
492 *8:371 *8:379 1.4
493 *8:370 *877:RN 1.4
494 *8:369 *8:377 0.372866
495 *8:368 *599:RN 1.4
496 *8:367 *615:RN 1.4
497 *8:366 *8:374 0.124289
498 *8:365 *8:373 1.4
499 *8:364 *8:372 0.124283
500 *8:363 *8:371 1.11855
501 *8:363 *8:370 1.4
502 *8:362 *8:369 1.4
503 *8:361 *8:368 0.99431
504 *8:360 *8:367 0.124289
505 *8:359 *8:366 1.4
506 *8:359 *8:365 2.11291
507 *8:358 *8:364 1.4
508 *8:357 *8:363 2.85851
509 *8:355 *8:362 1.24283
510 *8:354 *8:361 1.4
511 *8:353 *8:360 1.4
512 *8:353 *8:359 2.73435
513 *8:352 *8:358 0.99431
514 *8:351 *8:357 1.4
515 *8:351 *933:RN 1.4
516 *8:350 *8:355 1.4
517 *8:348 *8:354 0.497155
518 *8:348 *8:353 0.745732
519 *8:347 *8:352 1.4
520 *8:346 *8:351 0.248577
521 *8:345 *8:350 0.745732
522 *8:345 *964:RN 1.4
523 *8:344 *8:348 1.4
524 *8:342 *8:347 0.248566
525 *8:342 *8:346 1.4
526 *8:341 *8:345 1.36718
527 *8:340 *8:344 1.24289
528 *8:340 *603:RN 1.4
529 *8:338 *8:342 1.86425
530 *8:338 *8:341 1.4
531 *8:337 *8:340 0.124289
532 *8:336 *902:RN 1.4
533 *8:334 *8:338 0.372863
534 *8:333 *8:337 1.4
535 *8:332 *8:336 1.36711
536 *8:331 *900:RN 1.4
537 *8:330 *8:334 1.4
538 *8:328 *8:333 0.745732
539 *8:327 *8:332 1.4
540 *8:326 *8:331 2.2371
541 *8:324 *8:330 0.745732
542 *8:323 *602:RN 1.4
543 *8:322 *8:328 1.4
544 *8:321 *8:327 0.621415
545 *8:321 *8:326 1.4
546 *8:320 *907:RN 1.4
547 *8:319 *8:324 1.4
548 *8:318 *8:323 0.124289
549 *8:317 *8:322 0.870021
550 *8:313 *8:321 2.23709
551 *8:313 *8:320 1.4
552 *8:311 *8:319 0.870021
553 *8:311 *8:318 1.4
554 *8:310 *8:317 1.4
555 *8:309 *579:RN 1.4
556 *8:307 *788:RN 1.4
557 *8:304 *774:RN 1.4
558 *8:303 *8:313 0.621415
559 *8:302 *856:RN 1.4
560 *8:301 *8:311 2.61006
561 *8:301 *8:310 0.124289
562 *8:300 *8:309 1.4
563 *8:299 *821:RN 1.4
564 *8:298 *8:307 2.11281
565 *8:297 *822:RN 1.4
566 *8:296 *835:RN 1.4
567 *8:295 *8:304 1.4
568 *8:294 *8:303 1.4
569 *8:292 *8:302 0.124283
570 *8:291 *8:301 1.4
571 *8:290 *8:300 0.870021
572 *8:289 *8:299 1.4
573 *8:288 *8:298 1.4
574 *8:287 *8:297 0.124283
575 *8:286 *8:296 1.4
576 *8:285 *8:295 0.124283
577 *8:284 *8:294 0.869982
578 *8:284 *899:RN 1.4
579 *8:283 *8:292 1.4
580 *8:282 *8:291 1.24289
581 *8:282 *8:290 1.4
582 *8:281 *8:289 0.248566
583 *8:280 *8:288 0.994263
584 *8:280 *8:287 1.4
585 *8:279 *8:286 1.86425
586 *8:278 *8:285 1.4
587 *8:276 *8:284 1.4
588 *8:275 *8:283 0.497132
589 *8:274 *8:282 1.1186
590 *8:274 *8:281 1.4
591 *8:273 *8:280 2.36138
592 *8:271 *8:279 1.4
593 *8:270 *8:278 2.11281
594 *8:270 *906:RN 1.4
595 *8:269 *8:276 2.60994
596 *8:268 *8:275 1.4
597 *8:267 *8:274 1.24283
598 *8:267 *8:273 1.4
599 *8:265 *895:RN 1.4
600 *8:265 *8:271 1.11855
601 *8:264 *8:270 0.497132
602 *8:263 *8:269 1.4
603 *8:263 *8:268 0.124283
604 *8:262 *8:267 0.124283
605 *8:261 *777:RN 1.4
606 *8:260 *8:265 0.372849
607 *8:259 *8:264 1.4
608 *8:258 *8:263 1.73996
609 *8:256 *8:262 1.4
610 *8:254 *8:261 0.745698
611 *8:253 *8:260 1.4
612 *8:252 *8:259 0.124283
613 *8:252 *8:258 1.4
614 *8:251 *580:RN 1.4
615 *8:250 *8:256 1.98853
616 *8:249 *857:RN 1.4
617 *8:248 *8:254 1.4
618 *8:248 *8:253 0.621415
619 *8:247 *8:252 1.98853
620 *8:246 *8:251 0.248565
621 *8:246 *8:250 1.4
622 *8:244 *8:249 1.4
623 *8:243 *8:248 0.248566
624 *8:242 *8:247 1.4
625 *8:241 *8:246 0.994261
626 *8:240 *584:RN 1.4
627 *8:239 *8:244 0.248566
628 *8:238 *8:243 1.4
629 *8:238 *8:242 0.745698
630 *8:237 *8:241 1.4
631 *8:236 *8:240 0.124283
632 *8:234 *8:239 1.4
633 *8:234 *8:238 4.22561
634 *8:233 *8:237 0.621415
635 *8:233 *8:236 1.4
636 *8:232 *776:RN 1.4
637 *8:231 *8:234 0.994261
638 *8:230 *8:233 1.4914
639 *8:229 *8:232 1.4
640 *8:228 *8:231 1.4
641 *8:227 *8:230 1.4
642 *8:225 *8:229 0.124283
643 *8:225 *8:228 0.869981
644 *8:224 *8:227 0.869979
645 *8:224 *905:RN 1.4
646 *8:223 *8:225 1.4
647 *8:222 *8:224 1.49139
648 *8:221 *8:223 1.98852
649 *8:219 *8:222 1.4
650 *8:218 *8:221 1.4
651 *8:217 *601:RN 1.4
652 *8:216 *8:219 0.869981
653 *8:216 *8:218 0.497132
654 *8:215 *8:217 0.124283
655 *8:212 *8:216 1.4
656 *8:211 *8:215 1.4
657 *8:210 *588:RN 1.4
658 *8:209 *781:RN 1.4
659 *8:209 *8:212 0.248565
660 *8:207 *8:211 0.869981
661 *8:206 *8:210 1.4
662 *8:205 *8:209 1.4
663 *8:204 *575:RN 1.4
664 *8:203 *8:207 1.4
665 *8:202 *8:206 0.248566
666 *8:201 *8:205 2.23709
667 *8:201 *8:204 1.4
668 *8:200 *8:203 1.24283
669 *8:200 *8:202 1.4
670 *8:199 *8:201 0.124283
671 *8:197 *8:200 2.23709
672 *8:197 *8:199 1.4
673 *8:195 *647:RN 1.4
674 *8:193 *8:197 0.372848
675 *8:192 *648:RN 1.4
676 *8:191 *8:195 0.124283
677 *8:190 *600:RN 1.4
678 *8:189 *8:193 1.4
679 *8:188 *8:192 1.4
680 *8:187 *8:191 1.4
681 *8:186 *8:190 1.24283
682 *8:183 *8:189 0.869981
683 *8:181 *8:188 2.60994
684 *8:180 *8:187 1.11855
685 *8:180 *8:186 1.4
686 *8:179 *659:RN 1.4
687 *8:178 *651:RN 1.4
688 *8:177 *8:183 1.4
689 *8:176 *882:RN 1.4
690 *8:175 *8:181 1.4
691 *8:174 *8:180 0.372849
692 *8:173 *8:179 1.4
693 *8:172 *8:178 1.4
694 *8:171 *8:177 0.621413
695 *8:171 *8:176 0.124283
696 *8:170 *8:175 0.124283
697 *8:170 *8:174 1.4
698 *8:169 *8:173 0.124283
699 *8:167 *8:172 2.11281
700 *8:166 *8:171 1.4
701 *8:165 *8:170 0.994261
702 *8:165 *8:169 1.4
703 *8:163 *576:RN 1.4
704 *8:163 *8:167 1.4
705 *8:162 *8:166 2.98279
706 *8:160 *8:165 3.23135
707 *8:160 *649:SN 1.4
708 *8:159 *8:163 0.869979
709 *8:158 *8:162 1.4
710 *8:158 *858:RN 1.4
711 *8:157 *8:160 0.372848
712 *8:156 *8:159 1.4
713 *8:155 *8:158 1.49139
714 *8:154 *8:157 1.4
715 *8:154 *8:156 0.372849
716 *8:151 *8:155 1.4
717 *8:151 *8:154 1.98853
718 *8:150 *577:RN 1.4
719 *8:149 *903:RN 1.4
720 *8:148 *8:151 0.248566
721 *8:147 *8:150 1.4
722 *8:146 *8:149 0.124283
723 *8:146 *8:148 1.4
724 *8:145 *8:147 0.621415
725 *8:143 *8:146 1.98852
726 *8:143 *8:145 1.4
727 *8:140 *888:RN 1.4
728 *8:139 *8:143 0.994261
729 *8:138 *839:RN 1.4
730 *8:137 *889:RN 1.4
731 *8:136 *8:140 0.248578
732 *8:135 *8:139 1.4
733 *8:134 *8:138 0.124283
734 *8:132 *8:137 0.124289
735 *8:131 *8:136 1.4
736 *8:130 *8:135 0.994264
737 *8:130 *8:134 1.4
738 *8:128 *886:RN 1.4
739 *8:127 *8:132 1.4
740 *8:126 *8:131 0.621415
741 *8:125 *8:130 1.73996
742 *8:124 *887:RN 1.4
743 *8:123 *8:128 1.4
744 *8:122 *8:127 3.72849
745 *8:121 *8:126 1.4
746 *8:120 *8:125 1.4
747 *8:118 *8:124 1.4
748 *8:117 *8:123 0.372849
749 *8:116 *8:122 1.4
750 *8:116 *8:121 0.124289
751 *8:115 *8:120 1.11854
752 *8:115 *650:SN 1.4
753 *8:114 *8:118 0.372849
754 *8:113 *8:117 1.4
755 *8:113 *8:116 1.49146
756 *8:111 *8:115 1.1186
757 *8:110 *8:114 1.4
758 *8:110 *8:113 0.870021
759 *8:108 *881:RN 1.4
760 *8:107 *8:111 1.4
761 *8:106 *8:110 1.36718
762 *8:105 *880:RN 1.4
763 *8:103 *8:108 0.621438
764 *8:102 *8:107 0.497132
765 *8:102 *8:106 1.4
766 *8:101 *8:105 1.4
767 *8:99 *956:RN 1.4
768 *8:98 *8:103 1.4
769 *8:97 *8:102 2.60994
770 *8:97 *8:101 0.124283
771 *8:96 *958:RN 1.4
772 *8:95 *8:99 1.4
773 *8:95 *8:98 1.98852
774 *8:94 *8:97 1.4
775 *8:93 *8:96 1.4
776 *8:92 *8:95 0.621413
777 *8:91 *8:94 2.11286
778 *8:89 *8:93 0.372848
779 *8:88 *8:92 1.4
780 *8:87 *8:91 1.4
781 *8:86 *652:RN 1.4
782 *8:85 *8:89 1.4
783 *8:85 *8:88 1.86431
784 *8:82 *8:87 0.869981
785 *8:82 *8:86 1.4
786 *8:81 *8:85 1.86432
787 *8:80 *946:RN 1.4
788 *8:78 *957:RN 1.4
789 *8:77 *8:82 1.98853
790 *8:77 *8:81 1.4
791 *8:75 *8:80 0.621444
792 *8:74 *868:RN 1.4
793 *8:73 *8:78 1.4
794 *8:72 *8:77 0.124283
795 *8:71 *869:RN 1.4
796 *8:70 *8:75 1.4
797 *8:69 *8:74 1.4
798 *8:68 *8:73 0.248565
799 *8:67 *8:72 1.4
800 *8:66 *8:71 1.4
801 *8:66 *8:70 0.124283
802 *8:65 *8:69 0.372848
803 *8:64 *8:68 1.4
804 *8:64 *8:67 0.372866
805 *8:63 *8:66 2.73422
806 *8:62 *8:65 1.4
807 *8:62 *8:64 0.621444
808 *8:61 *8:63 1.4
809 *8:61 *8:62 2.2372
810 *8:59 *8:61 0.745733
811 *8:58 *658:RN 1.4
812 *8:57 *8:59 1.4
813 *8:56 *8:58 1.4
814 *8:55 *8:57 0.124283
815 *8:54 *8:56 2.11281
816 *8:53 *8:55 1.4
817 *8:51 *8:54 1.4
818 *8:51 *8:53 1.61575
819 *8:49 *918:RN 1.4
820 *8:47 *8:51 0.372866
821 *8:46 *923:RN 1.4
822 *8:46 *8:49 0.372866
823 *8:45 *921:RN 1.4
824 *8:43 *8:47 1.4
825 *8:42 *8:46 0.745733
826 *8:41 *8:45 1.4
827 *8:38 *922:RN 1.4
828 *8:37 *8:43 0.372848
829 *8:37 *8:42 1.4
830 *8:36 *8:41 0.124283
831 *8:35 *945:RN 1.4
832 *8:34 *944:RN 1.4
833 *8:33 *8:38 1.4
834 *8:32 *8:37 0.745696
835 *8:31 *8:36 1.4
836 *8:31 *8:35 2.2372
837 *8:30 *8:34 2.73423
838 *8:29 *8:33 0.372848
839 *8:28 *8:32 1.4
840 *8:27 *8:31 1.36713
841 *8:26 *8:30 1.4
842 *8:25 *8:29 1.4
843 *8:25 *8:28 3.3558
844 *8:23 *8:27 1.4
845 *8:23 *8:26 0.372865
846 *8:22 *8:25 1.74
847 *8:20 *920:RN 1.4
848 *8:19 *8:23 1.98861
849 *8:19 *8:22 1.4
850 *8:17 *917:RN 1.4
851 *8:16 *8:20 1.4
852 *8:15 *8:19 0.124288
853 *8:14 *947:RN 1.4
854 *8:13 *8:17 1.4
855 *8:12 *8:16 0.124288
856 *8:11 *8:15 1.4
857 *8:10 *8:14 1.4
858 *8:9 *8:13 0.124288
859 *8:8 *8:12 1.4
860 *8:8 *8:11 0.497132
861 *8:7 *8:10 0.248577
862 *8:6 *8:9 1.4
863 *8:6 *8:8 4.47419
864 *8:5 *8:7 1.4
865 *8:5 *8:6 0.372849
866 *8:4 *8:5 1.86425
867 *8:3 *8:4 1.4
868 *8:2 *8:3 2.23719
869 *8:1 *8:2 1.4
870 *919:RN *8:1 1.4
*END

*D_NET *9 0.00125041

*CONN
*I *909:D I *C 52.925 5.655 *L 0.00289 *D SDFFRHQX4
*P *9 I *C 55.175 0 *L 0

*CAP
1 *9:1 2.1324e-05
2 *9:2 2.1324e-05
3 *9:3 0.000161591
4 *9:4 0.000161591
5 *9:5 0.000437141
6 *9:6 0.000442288
7 *9 5.14716e-06

*RES
1 *9:6 *9 0.0299993
2 *9:5 *9:6 2.54779
3 *9:4 *9:5 1.4
4 *9:3 *9:4 0.994306
5 *9:2 *9:3 1.4
6 *9:1 *9:2 0.124283
7 *909:D *9:1 1.4
*END

*D_NET *10 0.00146806

*CONN
*I *927:D I *C 61.045 7.685 *L 0.00289 *D SDFFRHQX4
*P *10 I *C 58.625 0 *L 0

*CAP
1 *10:1 0.000447803
2 *10:2 0.000447803
3 *10:3 0.000161591
4 *10:4 0.000161591
5 *10:5 0.000117282
6 *10:6 0.000124635
7 *10 7.35309e-06

*RES
1 *10:6 *10 0.0428561
2 *10:5 *10:6 0.683555
3 *10:4 *10:5 1.4
4 *10:3 *10:4 0.994306
5 *10:2 *10:3 1.4
6 *10:1 *10:2 2.60994
7 *927:D *10:1 1.4
*END

*D_NET *11 0.00244212

*CONN
*I *924:D I *C 65.975 12.905 *L 0.00289 *D SDFFRHQX4
*P *11 I *C 62.075 0 *L 0

*CAP
1 *11:1 0.000831634
2 *11:2 0.000831634
3 *11:3 0.000262585
4 *11:4 0.000262585
5 *11:5 0.000117282
6 *11:6 0.000126841
7 *11 9.55901e-06

*RES
1 *11:6 *11 0.0557129
2 *11:5 *11:6 0.683555
3 *11:4 *11:5 1.4
4 *11:3 *11:4 1.61575
5 *11:2 *11:3 1.4
6 *11:1 *11:2 4.84702
7 *924:D *11:1 1.4
*END

*D_NET *12 0.00186006

*CONN
*I *926:D I *C 63.655 10.875 *L 0.00289 *D SDFFRHQX4
*P *12 I *C 65.52 0 *L 0

*CAP
1 *12:2 2.01988e-05
2 *12:3 2.01988e-05
3 *12:4 0.000661043
4 *12:5 0.000661043
5 *12:6 0.000100994
6 *12:7 0.000100994
7 *12:8 0.000138606
8 *12:9 0.000147797
9 *12 9.19136e-06

*RES
1 *12:9 *12 0.0535701
2 *12:8 *12:9 0.807837
3 *12:7 *12:8 1.4
4 *12:6 *12:7 0.621442
5 *12:5 *12:6 1.4
6 *12:4 *12:5 3.85276
7 *12:3 *12:4 1.4
8 *12:2 *12:3 0.124288
9 *12:1 *12:2 1.4
10 *926:D *12:1 1.4
*END

*D_NET *13 0.00784783

*CONN
*I *928:D I *C 20.735 31.755 *L 0.00289 *D SDFFRHQX4
*P *13 I *C 0 0 *L 0

*CAP
1 *13:2 0.0012709
2 *13:3 0.0012709
3 *13:4 0.00238128
4 *13:5 0.00238128
5 *13:6 0.000262032
6 *13:7 0.000271737
7 *13 9.70488e-06

*RES
1 *13:7 *13 0.0621444
2 *13:6 *13:7 1.6779
3 *13:5 *13:6 1.4
4 *13:4 *13:5 13.5474
5 *13:3 *13:4 1.4
6 *13:2 *13:3 7.20841
7 *13:1 *13:2 1.4
8 *928:D *13:1 1.4
*END

*D_NET *14 0.00572819

*CONN
*I *929:D I *C 20.445 23.345 *L 0.00289 *D SDFFRHQX4
*P *14 I *C 0 3.365 *L 0

*CAP
1 *14:1 0.0014937
2 *14:2 0.0014937
3 *14:3 0.00136839
4 *14:4 0.0013704
5 *14 2.00791e-06

*RES
1 *14:4 *14 0.0128575
2 *14:3 *14:4 8.76236
3 *14:2 *14:3 1.4
4 *14:1 *14:2 8.57588
5 *929:D *14:1 1.4
*END

*D_NET *15 0.00124958

*CONN
*I *925:D I *C 65.975 5.655 *L 0.00289 *D SDFFRHQX4
*P *15 I *C 68.97 0 *L 0

*CAP
1 *15:2 2.01988e-05
2 *15:3 2.01988e-05
3 *15:4 0.000255887
4 *15:5 0.000255887
5 *15:6 0.000181789
6 *15:7 0.000181789
7 *15:8 0.00015993
8 *15:9 0.000166915
9 *15 6.98543e-06

*RES
1 *15:9 *15 0.0407133
2 *15:8 *15:9 0.93212
3 *15:7 *15:8 1.4
4 *15:6 *15:7 1.11859
5 *15:5 *15:6 1.4
6 *15:4 *15:5 1.49139
7 *15:3 *15:4 1.4
8 *15:2 *15:3 0.124288
9 *15:1 *15:2 1.4
10 *925:D *15:1 1.4
*END

*D_NET *16 0.00142251

*CONN
*I *908:D I *C 74.385 7.685 *L 0.00289 *D SDFFRHQX4
*P *16 I *C 72.42 0 *L 0

*CAP
1 *16:2 4.03976e-05
2 *16:3 4.03976e-05
3 *16:4 0.000554423
4 *16:5 0.000554423
5 *16:6 0.000100994
6 *16:7 0.000100994
7 *16:8 1.0662e-05
8 *16:9 1.54415e-05
9 *16 4.77951e-06

*RES
1 *16:9 *16 0.0278565
2 *16:8 *16:9 0.0621413
3 *16:7 *16:8 1.4
4 *16:6 *16:7 0.621442
5 *16:5 *16:6 1.4
6 *16:4 *16:5 3.23135
7 *16:3 *16:4 1.4
8 *16:2 *16:3 0.248577
9 *16:1 *16:2 1.4
10 *908:D *16:1 1.4
*END

*D_NET *17 0.0035429

*CONN
*I *937:D I *C 67.425 16.095 *L 0.00289 *D SDFFRHQX4
*P *17 I *C 75.865 0 *L 0

*CAP
1 *17:1 0.0010662
2 *17:2 0.0010662
3 *17:3 0.000585766
4 *17:4 0.000585766
5 *17:5 0.000117282
6 *17:6 0.000119488
7 *17 2.20593e-06

*RES
1 *17:6 *17 0.0128568
2 *17:5 *17:6 0.683555
3 *17:4 *17:5 1.4
4 *17:3 *17:4 3.60436
5 *17:2 *17:3 1.4
6 *17:1 *17:2 6.21413
7 *937:D *17:1 1.4
*END

*D_NET *18 0.00321082

*CONN
*I *955:D I *C 74.965 18.125 *L 0.00289 *D SDFFRHQX4
*P *18 I *C 79.315 0 *L 0

*CAP
1 *18:1 0.00117282
2 *18:2 0.00117282
3 *18:3 0.000296137
4 *18:4 0.000296137
5 *18:5 0.000136456
6 *18 0.000136456

*RES
1 *18:5 *18 0.932126
2 *18:4 *18:5 1.4
3 *18:3 *18:4 1.86431
4 *18:2 *18:3 1.4
5 *18:1 *18:2 6.83555
6 *955:D *18:1 1.4
*END

*D_NET *19 0.00497615

*CONN
*I *954:D I *C 68.875 21.315 *L 0.00289 *D SDFFRHQX4
*P *19 I *C 82.765 0 *L 0

*CAP
1 *19:1 0.0014287
2 *19:2 0.0014287
3 *19:3 0.000939226
4 *19:4 0.000939226
5 *19:5 0.000118262
6 *19:6 0.000120144
7 *19 1.88215e-06

*RES
1 *19:6 *19 0.0128569
2 *19:5 *19:6 0.807842
3 *19:4 *19:5 1.4
4 *19:3 *19:4 5.96576
5 *19:2 *19:3 1.4
6 *19:1 *19:2 8.32694
7 *954:D *19:1 1.4
*END

*D_NET *20 0.00354384

*CONN
*I *897:D I *C 13.775 18.125 *L 0.00289 *D SDFFRHQX4
*P *20 I *C 0 6.73 *L 0

*CAP
1 *20:2 1.94098e-05
2 *20:3 1.94098e-05
3 *20:4 0.00080097
4 *20:5 0.00080097
5 *20:6 0.000892849
6 *20:7 0.000892849
7 *20:8 4.32957e-05
8 *20:9 4.32957e-05
9 *20:10 9.70488e-06
10 *20:11 1.53939e-05
11 *20 5.68906e-06

*RES
1 *20:11 *20 0.0364295
2 *20:10 *20:11 0.0621444
3 *20:9 *20:10 1.4
4 *20:8 *20:9 0.248576
5 *20:7 *20:8 1.4
6 *20:6 *20:7 5.71728
7 *20:5 *20:6 1.4
8 *20:4 *20:5 4.59866
9 *20:3 *20:4 1.4
10 *20:2 *20:3 0.124289
11 *20:1 *20:2 1.4
12 *897:D *20:1 1.4
*END

*D_NET *21 0.00257469

*CONN
*I *948:D I *C 6.525 21.315 *L 0.00289 *D SDFFRHQX4
*P *21 I *C 0 10.1 *L 0

*CAP
1 *21:2 0.000329966
2 *21:3 0.000329966
3 *21:4 0.000844266
4 *21:5 0.000844266
5 *21:6 0.000106754
6 *21:7 0.000113112
7 *21 6.35837e-06

*RES
1 *21:7 *21 0.0407153
2 *21:6 *21:7 0.683588
3 *21:5 *21:6 1.4
4 *21:4 *21:5 4.84724
5 *21:3 *21:4 1.4
6 *21:2 *21:3 2.11291
7 *21:1 *21:2 1.4
8 *948:D *21:1 1.4
*END

*D_NET *22 0.00672156

*CONN
*I *941:D I *C 30.885 26.535 *L 0.00289 *D SDFFRHQX4
*P *22 I *C 0 13.465 *L 0

*CAP
1 *22:1 2.3358e-05
2 *22:2 2.3358e-05
3 *22:3 0.00223075
4 *22:4 0.00223075
5 *22:5 0.000998579
6 *22:6 0.000998579
7 *22:7 0.000106754
8 *22:8 0.000108092
9 *22 1.3386e-06

*RES
1 *22:8 *22 0.00857164
2 *22:7 *22:8 0.683588
3 *22:6 *22:7 1.4
4 *22:5 *22:6 5.71726
5 *22:4 *22:5 1.4
6 *22:3 *22:4 12.5527
7 *22:2 *22:3 1.4
8 *22:1 *22:2 0.124289
9 *941:D *22:1 1.4
*END

*D_NET *23 0.00515534

*CONN
*I *939:D I *C 31.755 21.315 *L 0.00289 *D SDFFRHQX4
*P *23 I *C 0 16.83 *L 0

*CAP
1 *23:1 0.000365909
2 *23:2 0.000365909
3 *23:3 0.00214972
4 *23:4 0.00214972
5 *23:5 4.32957e-05
6 *23:6 4.32957e-05
7 *23:7 9.70488e-06
8 *23:8 1.87404e-05
9 *23 9.03557e-06

*RES
1 *23:8 *23 0.0578586
2 *23:7 *23:8 0.0621444
3 *23:6 *23:7 1.4
4 *23:5 *23:6 0.248576
5 *23:4 *23:5 1.4
6 *23:3 *23:4 13.5475
7 *23:2 *23:3 1.4
8 *23:1 *23:2 2.1129
9 *939:D *23:1 1.4
*END

*D_NET *24 0.00481895

*CONN
*I *936:D I *C 23.635 28.565 *L 0.00289 *D SDFFRHQX4
*P *24 I *C 0 20.195 *L 0

*CAP
1 *24:2 0.0016434
2 *24:3 0.0016434
3 *24:4 0.000637233
4 *24:5 0.000637233
5 *24:6 0.000126163
6 *24:7 0.000128841
7 *24 2.67721e-06

*RES
1 *24:7 *24 0.0171433
2 *24:6 *24:7 0.807877
3 *24:5 *24:6 1.4
4 *24:4 *24:5 3.60436
5 *24:3 *24:4 1.4
6 *24:2 *24:3 9.32123
7 *24:1 *24:2 1.4
8 *936:D *24:1 1.4
*END

*D_NET *25 0.13928

*CONN
*I *935:SE I *C 88.885 10.585 *L 0.00473 *D SDFFRHQX4
*I *943:SE I *C 89.175 7.975 *L 0.00473 *D SDFFRHQX4
*I *910:SE I *C 89.755 15.805 *L 0.00473 *D SDFFRHQX4
*I *913:SE I *C 90.045 23.635 *L 0.00473 *D SDFFRHQX4
*I *912:SE I *C 90.335 21.025 *L 0.00473 *D SDFFRHQX4
*I *914:SE I *C 77.865 23.635 *L 0.00473 *D SDFFRHQX4
*I *911:SE I *C 78.445 18.415 *L 0.00473 *D SDFFRHQX4
*I *915:SE I *C 76.995 26.245 *L 0.00473 *D SDFFRHQX4
*I *919:SE I *C 79.605 34.075 *L 0.00473 *D SDFFRHQX4
*I *955:SE I *C 76.995 18.415 *L 0.00473 *D SDFFRHQX4
*I *934:SE I *C 81.925 13.195 *L 0.00473 *D SDFFRHQX4
*I *954:SE I *C 66.845 21.025 *L 0.00473 *D SDFFRHQX4
*I *908:SE I *C 76.415 7.975 *L 0.00473 *D SDFFRHQX4
*I *843:SE I *C 65.395 21.315 *L 0.00488 *D SDFFRHQX1
*I *937:SE I *C 65.395 15.805 *L 0.00473 *D SDFFRHQX4
*I *938:SE I *C 77.285 5.365 *L 0.00473 *D SDFFRHQX4
*I *538:SE I *C 59.015 16.095 *L 0.00488 *D SDFFRHQX1
*I *953:SE I *C 54.665 13.195 *L 0.00473 *D SDFFRHQX4
*I *924:SE I *C 68.005 13.195 *L 0.00473 *D SDFFRHQX4
*I *537:SE I *C 55.825 21.315 *L 0.00488 *D SDFFRHQX1
*I *532:SE I *C 57.565 23.345 *L 0.00488 *D SDFFRHQX1
*I *909:SE I *C 50.895 5.365 *L 0.00473 *D SDFFRHQX4
*I *926:SE I *C 61.625 10.585 *L 0.00473 *D SDFFRHQX4
*I *927:SE I *C 63.075 7.975 *L 0.00473 *D SDFFRHQX4
*I *925:SE I *C 63.945 5.365 *L 0.00473 *D SDFFRHQX4
*I *529:SE I *C 52.055 28.565 *L 0.00488 *D SDFFRHQX1
*I *549:SE I *C 48.865 23.345 *L 0.00488 *D SDFFRHQX1
*I *547:SE I *C 42.775 21.315 *L 0.00488 *D SDFFRHQX1
*I *534:SE I *C 56.985 31.755 *L 0.00488 *D SDFFRHQX1
*I *546:SE I *C 42.485 26.535 *L 0.00488 *D SDFFRHQX1
*I *841:SE I *C 39.005 23.345 *L 0.00488 *D SDFFRHQX1
*I *939:SE I *C 33.785 21.025 *L 0.00473 *D SDFFRHQX4
*I *598:SE I *C 34.945 28.565 *L 0.00488 *D SDFFRHQX1
*I *940:SE I *C 42.775 10.585 *L 0.00473 *D SDFFRHQX4
*I *930:SE I *C 41.905 10.585 *L 0.00473 *D SDFFRHQX4
*I *941:SE I *C 32.915 26.245 *L 0.00473 *D SDFFRHQX4
*I *951:SE I *C 37.845 7.975 *L 0.00473 *D SDFFRHQX4
*I *952:SE I *C 37.555 5.365 *L 0.00473 *D SDFFRHQX4
*I *949:SE I *C 35.235 5.365 *L 0.00473 *D SDFFRHQX4
*I *950:SE I *C 30.595 13.195 *L 0.00473 *D SDFFRHQX4
*I *942:SE I *C 25.375 7.975 *L 0.00473 *D SDFFRHQX4
*I *961:SE I *C 18.415 13.195 *L 0.00473 *D SDFFRHQX4
*I *960:SE I *C 18.125 10.585 *L 0.00473 *D SDFFRHQX4
*I *966:SE I *C 16.385 10.585 *L 0.00473 *D SDFFRHQX4
*I *962:SE I *C 12.615 7.975 *L 0.00473 *D SDFFRHQX4
*I *967:SE I *C 21.025 15.805 *L 0.00473 *D SDFFRHQX4
*I *897:SE I *C 15.805 18.415 *L 0.00473 *D SDFFRHQX4
*I *929:SE I *C 18.415 23.635 *L 0.00473 *D SDFFRHQX4
*I *931:SE I *C 15.805 31.465 *L 0.00473 *D SDFFRHQX4
*I *916:SE I *C 16.675 26.245 *L 0.00473 *D SDFFRHQX4
*I *928:SE I *C 18.705 31.465 *L 0.00473 *D SDFFRHQX4
*I *936:SE I *C 21.605 28.855 *L 0.00473 *D SDFFRHQX4
*I *525:SE I *C 17.255 36.975 *L 0.00488 *D SDFFRHQX1
*I *524:SE I *C 12.615 36.975 *L 0.00488 *D SDFFRHQX1
*I *964:SE I *C 19.575 42.485 *L 0.00389 *D SDFFRX1
*I *669:SE I *C 16.965 42.195 *L 0.00488 *D SDFFRHQX1
*I *523:SE I *C 5.945 39.005 *L 0.00488 *D SDFFRHQX1
*I *896:SE I *C 5.365 34.075 *L 0.00473 *D SDFFRHQX4
*I *877:SE I *C 8.555 43.935 *L 0.00389 *D SDFFRX1
*I *673:SE I *C 6.235 52.635 *L 0.00488 *D SDFFRHQX1
*I *932:SE I *C 5.365 28.855 *L 0.00473 *D SDFFRHQX4
*I *948:SE I *C 4.495 21.025 *L 0.00473 *D SDFFRHQX4
*I *963:SE I *C 5.655 5.365 *L 0.00473 *D SDFFRHQX4
*I *667:SE I *C 14.645 49.445 *L 0.00488 *D SDFFRHQX1
*I *876:SE I *C 14.645 47.705 *L 0.00389 *D SDFFRX1
*I *870:SE I *C 16.095 38.715 *L 0.00389 *D SDFFRX1
*I *965:SE I *C 5.075 15.805 *L 0.00473 *D SDFFRHQX4
*I *670:SE I *C 13.195 57.855 *L 0.00488 *D SDFFRHQX1
*I *968:SE I *C 5.365 13.195 *L 0.00473 *D SDFFRHQX4
*I *671:SE I *C 12.035 63.075 *L 0.00488 *D SDFFRHQX1
*I *871:SE I *C 17.835 65.105 *L 0.00487 *D SDFFRHQX8
*I *872:SE I *C 17.835 59.885 *L 0.00487 *D SDFFRHQX8
*I *788:SE I *C 21.605 59.885 *L 0.00483 *D SDFFRHQX2
*I *786:SE I *C 27.115 68.295 *L 0.00483 *D SDFFRHQX2
*I *867:SE I *C 17.835 70.325 *L 0.00487 *D SDFFRHQX8
*I *785:SE I *C 19.575 73.515 *L 0.00483 *D SDFFRHQX2
*I *672:SE I *C 23.925 57.855 *L 0.00488 *D SDFFRHQX1
*I *874:SE I *C 16.965 75.545 *L 0.00487 *D SDFFRHQX8
*I *822:SE I *C 23.345 54.665 *L 0.00488 *D SDFFRHQX1
*I *666:SE I *C 19.865 54.665 *L 0.00488 *D SDFFRHQX1
*I *901:SE I *C 18.125 78.735 *L 0.00487 *D SDFFRHQX8
*I *902:SE I *C 21.605 80.765 *L 0.00487 *D SDFFRHQX8
*I *866:SE I *C 17.545 83.955 *L 0.00487 *D SDFFRHQX8
*I *668:SE I *C 25.665 52.635 *L 0.00488 *D SDFFRHQX1
*I *821:SE I *C 28.275 52.635 *L 0.00488 *D SDFFRHQX1
*I *959:SE I *C 25.375 47.705 *L 0.00389 *D SDFFRX1
*I *904:SE I *C 14.065 85.985 *L 0.00487 *D SDFFRHQX8
*I *873:SE I *C 5.945 80.765 *L 0.00487 *D SDFFRHQX8
*I *580:SE I *C 33.495 54.665 *L 0.00488 *D SDFFRHQX1
*I *865:SE I *C 5.945 68.295 *L 0.00487 *D SDFFRHQX8
*I *875:SE I *C 5.075 73.515 *L 0.00487 *D SDFFRHQX8
*I *905:SE I *C 35.235 59.885 *L 0.00487 *D SDFFRHQX8
*I *933:SE I *C 27.985 43.935 *L 0.00389 *D SDFFRX1
*I *781:SE I *C 41.035 63.075 *L 0.00483 *D SDFFRHQX2
*I *603:SE I *C 30.885 44.225 *L 0.00488 *D SDFFRHQX1
*I *615:SE I *C 32.625 42.195 *L 0.00488 *D SDFFRHQX1
*I *602:SE I *C 34.945 47.415 *L 0.00488 *D SDFFRHQX1
*I *776:SE I *C 41.905 68.295 *L 0.00483 *D SDFFRHQX2
*I *903:SE I *C 51.185 68.295 *L 0.00487 *D SDFFRHQX8
*I *882:SE I *C 47.705 64.815 *L 0.00389 *D SDFFRX1
*I *579:SE I *C 39.005 49.445 *L 0.00488 *D SDFFRHQX1
*I *584:SE I *C 47.125 57.855 *L 0.00488 *D SDFFRHQX1
*I *577:SE I *C 52.925 73.515 *L 0.00488 *D SDFFRHQX1
*I *839:SE I *C 56.695 75.545 *L 0.00488 *D SDFFRHQX1
*I *774:SE I *C 50.605 75.545 *L 0.00483 *D SDFFRHQX2
*I *880:SE I *C 65.105 80.765 *L 0.00487 *D SDFFRHQX8
*I *895:SE I *C 58.145 80.475 *L 0.00389 *D SDFFRX1
*I *857:SE I *C 58.435 70.325 *L 0.00487 *D SDFFRHQX8
*I *575:SE I *C 57.855 63.075 *L 0.00488 *D SDFFRHQX1
*I *777:SE I *C 44.225 78.735 *L 0.00488 *D SDFFRHQX1
*I *576:SE I *C 60.465 70.325 *L 0.00488 *D SDFFRHQX1
*I *886:SE I *C 57.855 85.985 *L 0.00487 *D SDFFRHQX8
*I *856:SE I *C 55.535 85.985 *L 0.00487 *D SDFFRHQX8
*I *659:SE I *C 59.885 59.885 *L 0.00488 *D SDFFRHQX1
*I *835:SE I *C 50.025 83.955 *L 0.00488 *D SDFFRHQX1
*I *907:SE I *C 46.835 83.955 *L 0.00487 *D SDFFRHQX8
*I *906:SE I *C 35.525 80.765 *L 0.00487 *D SDFFRHQX8
*I *898:SE I *C 31.465 83.955 *L 0.00487 *D SDFFRHQX8
*I *588:SE I *C 58.725 57.855 *L 0.00488 *D SDFFRHQX1
*I *889:SE I *C 50.025 89.175 *L 0.00487 *D SDFFRHQX8
*I *600:SE I *C 58.725 54.665 *L 0.00488 *D SDFFRHQX1
*I *601:SE I *C 56.115 54.665 *L 0.00488 *D SDFFRHQX1
*I *900:SE I *C 41.615 89.175 *L 0.00487 *D SDFFRHQX8
*I *658:SE I *C 69.745 63.075 *L 0.00488 *D SDFFRHQX1
*I *647:SE I *C 68.295 57.855 *L 0.00488 *D SDFFRHQX1
*I *858:SE I *C 70.325 65.105 *L 0.00487 *D SDFFRHQX8
*I *899:SE I *C 29.725 85.985 *L 0.00487 *D SDFFRHQX8
*I *790:SE I *C 29.725 75.835 *L 0.00473 *D SDFFRHQX4
*I *607:SE I *C 56.405 47.415 *L 0.00488 *D SDFFRHQX1
*I *649:SE I *C 72.645 68.295 *L 0.00468 *D SDFFSHQX1
*I *651:SE I *C 77.575 70.325 *L 0.00488 *D SDFFRHQX1
*I *682:SE I *C 61.625 42.485 *L 0.0038 *D SDFFRXL
*I *869:SE I *C 78.155 68.295 *L 0.00487 *D SDFFRHQX8
*I *683:SE I *C 63.365 43.935 *L 0.0038 *D SDFFRXL
*I *593:SE I *C 52.925 49.445 *L 0.00488 *D SDFFRHQX1
*I *526:SE I *C 51.185 42.195 *L 0.00488 *D SDFFRHQX1
*I *652:SE I *C 70.035 75.545 *L 0.00488 *D SDFFRHQX1
*I *528:SE I *C 43.935 39.005 *L 0.00488 *D SDFFRHQX1
*I *599:SE I *C 41.905 39.005 *L 0.00488 *D SDFFRHQX1
*I *946:SE I *C 79.025 70.615 *L 0.00473 *D SDFFRHQX4
*I *650:SE I *C 73.805 78.735 *L 0.00468 *D SDFFSHQX1
*I *868:SE I *C 89.465 73.515 *L 0.00487 *D SDFFRHQX8
*I *957:SE I *C 90.335 75.835 *L 0.00473 *D SDFFRHQX4
*I *945:SE I *C 79.315 57.565 *L 0.00473 *D SDFFRHQX4
*I *958:SE I *C 90.335 81.055 *L 0.00473 *D SDFFRHQX4
*I *881:SE I *C 77.575 85.985 *L 0.00487 *D SDFFRHQX8
*I *648:SE I *C 77.865 57.855 *L 0.00488 *D SDFFRHQX1
*I *887:SE I *C 78.155 83.955 *L 0.00487 *D SDFFRHQX8
*I *923:SE I *C 90.335 62.785 *L 0.00473 *D SDFFRHQX4
*I *921:SE I *C 79.605 52.345 *L 0.00473 *D SDFFRHQX4
*P *25 I *C 96.57 86.395 *L 0
*I *956:SE I *C 90.915 83.665 *L 0.00473 *D SDFFRHQX4
*I *918:SE I *C 90.335 65.395 *L 0.00473 *D SDFFRHQX4
*I *922:SE I *C 91.205 54.955 *L 0.00473 *D SDFFRHQX4
*I *944:SE I *C 80.185 44.515 *L 0.00473 *D SDFFRHQX4
*I *888:SE I *C 78.735 89.175 *L 0.00487 *D SDFFRHQX8
*I *920:SE I *C 91.495 49.735 *L 0.00473 *D SDFFRHQX4
*I *917:SE I *C 92.075 39.295 *L 0.00473 *D SDFFRHQX4
*I *947:SE I *C 91.205 36.685 *L 0.00473 *D SDFFRHQX4

*CAP
1 *25:2 1.82429e-05
2 *25:3 1.82429e-05
3 *25:4 0.00049124
4 *25:5 0.000654987
5 *25:6 0.000163747
6 *25:7 0.000327494
7 *25:8 3.64858e-05
8 *25:10 5.47287e-05
9 *25:11 3.64858e-05
10 *25:12 7.29716e-05
11 *25:14 0.000163747
12 *25:15 1.82429e-05
13 *25:17 0.000163747
14 *25:20 0.00069323
15 *25:22 0.000729716
16 *25:23 0.000165137
17 *25:24 7.59055e-05
18 *25:25 0.000165137
19 *25:26 0.000309299
20 *25:27 3.94197e-05
21 *25:28 0.000190365
22 *25:29 0.000327493
23 *25:31 4.0595e-05
24 *25:32 0.00014977
25 *25:33 5.96185e-05
26 *25:34 1.81941e-05
27 *25:36 0.000566288
28 *25:38 0.000100016
29 *25:40 0.000566288
30 *25:42 0.000405155
31 *25:43 4.03976e-05
32 *25:45 0.000405155
33 *25:46 0.000191916
34 *25:47 0.000298732
35 *25:48 0.000170592
36 *25:49 2.1324e-05
37 *25:50 0.000278533
38 *25:51 2.01988e-05
39 *25:52 0.000706959
40 *25:55 0.000362507
41 *25:56 0.000787754
42 *25:58 0.000362507
43 *25:60 8.07953e-05
44 *25:61 8.07953e-05
45 *25:63 0.000362507
46 *25:64 2.01988e-05
47 *25:65 6.05964e-05
48 *25:66 2.1324e-05
49 *25:67 0.000341183
50 *25:68 0.00021324
51 *25:69 2.1324e-05
52 *25:70 2.01988e-05
53 *25:71 2.01988e-05
54 *25:72 0.00021324
55 *25:73 2.1324e-05
56 *25:74 2.01988e-05
57 *25:75 6.05964e-05
58 *25:76 2.01988e-05
59 *25:79 4.26479e-05
60 *25:80 0.000444374
61 *25:81 2.01988e-05
62 *25:83 4.26479e-05
63 *25:84 0.00021324
64 *25:85 0.000605964
65 *25:88 0.000298535
66 *25:89 2.1324e-05
67 *25:90 0.000302982
68 *25:92 0.000222187
69 *25:93 8.52958e-05
70 *25:94 2.1324e-05
71 *25:95 0.000362507
72 *25:96 0.000100994
73 *25:97 0.000222187
74 *25:98 0.000201988
75 *25:100 0.000511775
76 *25:101 0.000234563
77 *25:102 2.1324e-05
78 *25:103 0.000201988
79 *25:104 0.000191916
80 *25:105 2.01988e-05
81 *25:106 0.00081031
82 *25:107 2.1324e-05
83 *25:108 0.000127944
84 *25:109 4.26479e-05
85 *25:110 0.000100994
86 *25:111 2.01988e-05
87 *25:113 0.000575747
88 *25:115 0.000319859
89 *25:116 0.000283262
90 *25:117 0.000100994
91 *25:119 0.000266894
92 *25:120 2.01988e-05
93 *25:121 0.000383831
94 *25:122 0.000283262
95 *25:125 0.000266894
96 *25:126 2.01988e-05
97 *25:127 8.07953e-05
98 *25:128 0.000191916
99 *25:129 0.000403022
100 *25:133 8.07953e-05
101 *25:134 0.000141392
102 *25:135 0.000453405
103 *25:136 4.30482e-05
104 *25:140 0.000141392
105 *25:141 9.34319e-05
106 *25:143 0.000232721
107 *25:146 0.000352583
108 *25:148 0.000677007
109 *25:150 0.000352583
110 *25:153 0.000486599
111 *25:154 0.000163404
112 *25:156 0.000150669
113 *25:157 8.46259e-05
114 *25:158 0.000163404
115 *25:159 0.000150669
116 *25:160 0.000239516
117 *25:161 4.2313e-05
118 *25:162 2.20059e-05
119 *25:164 0.000239516
120 *25:165 2.15241e-05
121 *25:166 2.20059e-05
122 *25:167 2.29811e-05
123 *25:168 0.000172193
124 *25:170 2.29811e-05
125 *25:171 0.000190408
126 *25:172 0.000150669
127 *25:175 0.000190408
128 *25:176 0.000528912
129 *25:178 2.15241e-05
130 *25:179 4.2313e-05
131 *25:180 0.000571225
132 *25:181 2.15241e-05
133 *25:182 0.000774867
134 *25:183 0.00038835
135 *25:184 8.46259e-05
136 *25:186 0.000774867
137 *25:187 0.000575214
138 *25:189 6.34694e-05
139 *25:190 0.000186864
140 *25:191 0.000160868
141 *25:193 4.2313e-05
142 *25:194 0.000317347
143 *25:196 0.000160868
144 *25:199 0.000296191
145 *25:203 0.000193717
146 *25:205 0.000236765
147 *25:207 4.30482e-05
148 *25:208 2.11565e-05
149 *25:209 0.000380817
150 *25:210 0.000150669
151 *25:211 0.00035966
152 *25:212 0.000150669
153 *25:213 4.30482e-05
154 *25:215 0.000169252
155 *25:216 4.30482e-05
156 *25:217 0.000169252
157 *25:218 0.000148095
158 *25:220 0.000524545
159 *25:222 0.000387434
160 *25:223 0.000764645
161 *25:224 0.000387434
162 *25:226 0.000388195
163 *25:229 0.000194831
164 *25:230 0.000194831
165 *25:231 7.7639e-05
166 *25:232 9.70488e-05
167 *25:233 0.000194831
168 *25:234 0.000135868
169 *25:235 0.000389661
170 *25:237 0.000368785
171 *25:238 0.000194831
172 *25:242 0.000252327
173 *25:243 1.94098e-05
174 *25:245 0.000194831
175 *25:246 0.000174688
176 *25:247 0.000194831
177 *25:248 0.000151535
178 *25:249 0.000155278
179 *25:251 0.000151535
180 *25:253 0.000174688
181 *25:255 0.000174688
182 *25:256 4.32957e-05
183 *25:257 0.000432957
184 *25:258 0.000389661
185 *25:259 1.94098e-05
186 *25:260 0.000174688
187 *25:261 1.94098e-05
188 *25:262 0.000155278
189 *25:263 1.94098e-05
190 *25:266 0.000195386
191 *25:269 0.00058229
192 *25:270 0.000409663
193 *25:271 6.5736e-05
194 *25:272 0.00021912
195 *25:273 2.2759e-05
196 *25:274 6.5736e-05
197 *25:275 0.00021912
198 *25:278 2.2759e-05
199 *25:280 2.2759e-05
200 *25:281 0.000306768
201 *25:283 0.000241032
202 *25:284 6.5736e-05
203 *25:285 0.000204831
204 *25:286 0.000432422
205 *25:287 0.000204831
206 *25:288 0.000432422
207 *25:289 2.1912e-05
208 *25:290 0.000175296
209 *25:291 2.1912e-05
210 *25:292 0.000131472
211 *25:293 0.000394416
212 *25:295 0.000386904
213 *25:297 0.000810744
214 *25:299 0.000432422
215 *25:302 0.000525888
216 *25:303 4.55181e-05
217 *25:304 0.000197208
218 *25:306 0.000159313
219 *25:307 6.5736e-05
220 *25:309 0.00021912
221 *25:310 0.000523458
222 *25:311 0.00022759
223 *25:312 2.2759e-05
224 *25:313 8.7648e-05
225 *25:314 0.000364145
226 *25:315 4.3824e-05
227 *25:316 0.000637253
228 *25:317 2.2759e-05
229 *25:318 0.000568976
230 *25:319 6.5736e-05
231 *25:320 0.000175296
232 *25:321 4.3824e-05
233 *25:322 2.1912e-05
234 *25:323 0.00100471
235 *25:325 0.000568976
236 *25:326 0.00025035
237 *25:327 0.000153384
238 *25:328 2.1912e-05
239 *25:330 2.1912e-05
240 *25:331 2.1912e-05
241 *25:332 0.00098471
242 *25:333 0.000153384
243 *25:334 0.00025035
244 *25:335 2.2759e-05
245 *25:336 0.000704061
246 *25:339 2.1912e-05
247 *25:340 7.7639e-05
248 *25:341 0.000584492
249 *25:342 0.000262944
250 *25:343 2.1912e-05
251 *25:344 2.2759e-05
252 *25:345 0.000704061
253 *25:348 7.7639e-05
254 *25:349 3.88195e-05
255 *25:350 0.000779323
256 *25:351 0.000136554
257 *25:352 0.00010956
258 *25:353 2.1912e-05
259 *25:358 3.88195e-05
260 *25:359 1.94098e-05
261 *25:360 0.000584492
262 *25:361 2.2759e-05
263 *25:362 0.000113795
264 *25:363 0.00066367
265 *25:367 1.94098e-05
266 *25:371 0.0010557
267 *25:375 0.000392031
268 *25:378 0.000388877
269 *25:379 0.000327476
270 *25:380 8.18689e-05
271 *25:381 2.04672e-05
272 *25:382 0.000239574
273 *25:384 0.000152456
274 *25:385 0.000239574
275 *25:387 0.000392031
276 *25:388 2.04672e-05
277 *25:389 0.000239574
278 *25:391 0.000286541
279 *25:392 4.09345e-05
280 *25:393 0.000266074
281 *25:395 0.000666089
282 *25:396 0.000108897
283 *25:398 0.000625155
284 *25:399 0.000152456
285 *25:401 0.000108897
286 *25:403 0.000392031
287 *25:404 0.000102336
288 *25:406 0.00041381
289 *25:407 4.09345e-05
290 *25:408 0.000102336
291 *25:409 0.000174236
292 *25:410 8.18689e-05
293 *25:411 4.09345e-05
294 *25:412 4.3559e-05
295 *25:413 4.09345e-05
296 *25:414 8.18689e-05
297 *25:416 0.000283133
298 *25:417 0.000102336
299 *25:420 6.14017e-05
300 *25:421 0.000239574
301 *25:422 0.000212062
302 *25:423 6.14017e-05
303 *25:425 6.14017e-05
304 *25:426 0.000245607
305 *25:427 0.000373684
306 *25:428 2.17795e-05
307 *25:430 2.04672e-05
308 *25:431 0.00022514
309 *25:432 0.000161621
310 *25:433 1.82017e-05
311 *25:434 2.17795e-05
312 *25:436 4.3559e-05
313 *25:438 0.000254824
314 *25:439 1.82017e-05
315 *25:442 4.3559e-05
316 *25:444 0.000236622
317 *25:445 1.82017e-05
318 *25:447 0.000163738
319 *25:448 3.59158e-05
320 *25:449 0.000161621
321 *25:451 0.000184205
322 *25:452 3.59158e-05
323 *25:453 0.000161621
324 *25:454 2.04672e-05
325 *25:455 0.000108897
326 *25:457 0.000254824
327 *25:459 8.71179e-05
328 *25:460 0.000108897
329 *25:461 0.000345832
330 *25:462 8.71179e-05
331 *25:464 0.000125705
332 *25:465 9.10084e-05
333 *25:466 0.00022854
334 *25:467 0.000125705
335 *25:468 0.000179579
336 *25:469 0.000211255
337 *25:470 4.09345e-05
338 *25:471 3.64034e-05
339 *25:472 0.000179579
340 *25:473 2.36495e-05
341 *25:474 2.3884e-05
342 *25:475 0.000407214
343 *25:476 3.64034e-05
344 *25:477 0.000382235
345 *25:478 0.000143304
346 *25:479 2.3884e-05
347 *25:480 0.000543768
348 *25:482 0.000382235
349 *25:483 0.000143304
350 *25:486 0.000136554
351 *25:488 1.79579e-05
352 *25:489 0.000402042
353 *25:490 0.000181176
354 *25:491 0.000529962
355 *25:492 0.000543939
356 *25:493 0.000181176
357 *25:495 0.000904034
358 *25:496 0.000141897
359 *25:498 0.000163506
360 *25:499 6.14017e-05
361 *25:500 0.000392031
362 *25:501 0.000406027
363 *25:503 0.000163506
364 *25:504 6.14017e-05
365 *25:506 0.000429911
366 *25:507 2.29811e-05
367 *25:509 0.000472991
368 *25:510 2.3884e-05
369 *25:511 0.000252792
370 *25:513 0.000472991
371 *25:515 0.000344716
372 *25:517 0.000286608
373 *25:518 0.000137886
374 *25:519 2.3358e-05
375 *25:521 0.000501563
376 *25:522 2.29811e-05
377 *25:523 0.000140148
378 *25:524 2.3358e-05
379 *25:525 0.000214956
380 *25:527 0.000303654
381 *25:528 0.000140148
382 *25:530 9.45981e-05
383 *25:531 0.000303654
384 *25:532 2.29811e-05
385 *25:533 0.000472991
386 *25:534 0.000183849
387 *25:535 2.29811e-05
388 *25:536 0.000425691
389 *25:537 0.000214956
390 *25:538 0.000482603
391 *25:540 0.00023884
392 *25:541 4.72991e-05
393 *25:542 0.000214956
394 *25:543 0.000298754
395 *25:544 2.3358e-05
396 *25:546 0.00023884
397 *25:547 7.16519e-05
398 *25:548 2.36495e-05
399 *25:549 0.000140148
400 *25:550 2.3358e-05
401 *25:551 0.000354743
402 *25:552 0.000644867
403 *25:553 2.36495e-05
404 *25:554 0.000140148
405 *25:556 0.000354743
406 *25:557 2.36495e-05
407 *25:558 0.000573215
408 *25:560 2.29811e-05
409 *25:561 0.000429911
410 *25:562 2.36495e-05
411 *25:563 2.36495e-05
412 *25:565 2.29811e-05
413 *25:566 0.000406027
414 *25:567 2.3884e-05
415 *25:569 2.36495e-05
416 *25:571 4.72991e-05
417 *25:576 0.000138299
418 *25:578 0.000379734
419 *25:579 0.000143304
420 *25:580 0.000377575
421 *25:582 0.000143304
422 *25:583 0.000111052
423 *25:584 0.000155705
424 *25:586 9.45981e-05
425 *25:587 2.22103e-05
426 *25:588 0.00054559
427 *25:589 0.000155705
428 *25:590 0.000189196
429 *25:591 0.000222436
430 *25:592 0.00054559
431 *25:594 2.3884e-05
432 *25:595 9.45981e-05
433 *25:596 0.000222436
434 *25:597 2.1362e-05
435 *25:598 2.3884e-05
436 *25:599 0.000282249
437 *25:600 4.44206e-05
438 *25:601 0.00053405
439 *25:603 0.000282249
440 *25:604 0.000177683
441 *25:605 2.22103e-05
442 *25:606 0.000512688
443 *25:607 0.000399157
444 *25:608 0.000467027
445 *25:609 0.000155472
446 *25:610 2.22436e-05
447 *25:611 0.000578335
448 *25:613 0.000378149
449 *25:614 2.10083e-05
450 *25:615 8.4914e-05
451 *25:616 0.000997739
452 *25:617 2.22436e-05
453 *25:618 2.22436e-05
454 *25:619 0.000823015
455 *25:621 2.1362e-05
456 *25:623 0.000377608
457 *25:625 0.000615626
458 *25:626 2.22436e-05
459 *25:629 0.00024468
460 *25:630 0.000192258
461 *25:631 0.000377608
462 *25:633 0.000104891
463 *25:635 4.44206e-05
464 *25:637 0.000170896
465 *25:638 2.12285e-05
466 *25:639 0.000104891
467 *25:640 0.000155472
468 *25:643 4.2457e-05
469 *25:644 2.12285e-05
470 *25:645 0.000732941
471 *25:646 0.000155705
472 *25:648 0.000377608
473 *25:649 0.000254742
474 *25:650 0.000318427
475 *25:651 0.00066631
476 *25:653 0.000400385
477 *25:654 0.000377608
478 *25:656 0.000233513
479 *25:657 4.19564e-05
480 *25:658 0.000382113
481 *25:659 0.000266924
482 *25:660 4.44206e-05
483 *25:662 2.22103e-05
484 *25:663 0.00024468
485 *25:664 2.12285e-05
486 *25:667 4.19564e-05
487 *25:668 0.000272717
488 *25:669 8.4914e-05
489 *25:670 0.000266924
490 *25:671 0.000155705
491 *25:672 2.22103e-05
492 *25:673 0.000199893
493 *25:674 0.000636855
494 *25:677 0.000335652
495 *25:678 0.000315488
496 *25:679 0.000133262
497 *25:680 0.000155705
498 *25:682 2.22103e-05
499 *25:683 0.000177683
500 *25:685 0.000615626
501 *25:686 6.29347e-05
502 *25:688 0.000315488
503 *25:689 0.000177683
504 *25:690 2.22103e-05
505 *25:692 0.000574238
506 *25:696 0.000127371
507 *25:697 4.72991e-05
508 *25:698 4.44206e-05
509 *25:699 2.22436e-05
510 *25:700 2.22103e-05
511 *25:702 0.000574238
512 *25:705 0.000127371
513 *25:706 4.72991e-05
514 *25:707 0.000133462
515 *25:708 2.22436e-05
516 *25:710 2.20059e-05
517 *25:711 8.39129e-05
518 *25:712 2.3884e-05
519 *25:713 0.000378142
520 *25:716 0.000176048
521 *25:717 8.39129e-05
522 *25:718 2.3884e-05
523 *25:719 0.00024468
524 *25:721 0.000280121
525 *25:722 0.000530581
526 *25:725 0.000222103
527 *25:726 0.000280121
528 *25:728 0.000376539
529 *25:729 0.000555258
530 *25:730 4.44206e-05
531 *25:731 0.000242065
532 *25:733 0.000583949
533 *25:734 0.000399786
534 *25:736 0.000556091
535 *25:737 0.000264071
536 *25:738 0.000163506
537 *25:739 0.000677381
538 *25:740 4.44206e-05
539 *25:741 0.000155705
540 *25:743 0.000840935
541 *25:744 0.000132036
542 *25:745 0.000116717
543 *25:746 0.000112468
544 *25:747 2.29811e-05
545 *25:748 0.000256938
546 *25:749 0.000177949
547 *25:750 2.22103e-05
548 *25:751 0.000155705
549 *25:752 0.000284844
550 *25:753 2.22103e-05
551 *25:754 0.00011003
552 *25:755 0.000116717
553 *25:756 0.000112468
554 *25:757 2.29811e-05
555 *25:758 0.000597508
556 *25:759 0.000422629
557 *25:760 0.000133462
558 *25:762 0.000299068
559 *25:763 2.22103e-05
560 *25:768 0.000758376
561 *25:769 0.00024468
562 *25:770 8.27825e-05
563 *25:772 0.000133462
564 *25:773 0.000299068
565 *25:779 0.000160868
566 *25:780 0.000795108
567 *25:781 8.27825e-05
568 *25:782 8.0359e-05
569 *25:783 0.000399157
570 *25:787 0.000854468
571 *25:789 8.0359e-05
572 *25:790 0.000357141
573 *25:791 4.20166e-05
574 *25:793 9.89341e-05
575 *25:794 1.9581e-05
576 *25:796 0.000587431
577 *25:797 0.000277706
578 *25:799 0.000137067
579 *25:800 3.95736e-05
580 *25:801 1.9581e-05
581 *25:802 0.000607013
582 *25:803 0.00032043
583 *25:804 0.00046461
584 *25:805 0.00074408
585 *25:807 0.000102569
586 *25:808 0.00037204
587 *25:809 4.2724e-05
588 *25:810 0.00012605
589 *25:811 0.000480167
590 *25:813 0.00127277
591 *25:814 0.000102569
592 *25:816 0.000918051
593 *25:817 0.000378149
594 *25:818 0.00012605
595 *25:819 0.000305249
596 *25:821 3.95736e-05
597 *25:822 0.000892984
598 *25:824 1.97868e-05
599 *25:825 0.000565592
600 *25:826 0.000357141
601 *25:827 2.10083e-05
602 *25:829 0.000152624
603 *25:830 3.37696e-05
604 *25:831 3.95736e-05
605 *25:832 1.97868e-05
606 *25:833 0.00111935
607 *25:835 1.97868e-05
608 *25:836 6.08925e-05
609 *25:837 3.60082e-05
610 *25:839 0.000363023
611 *25:840 3.37696e-05
612 *25:841 0.000176229
613 *25:842 1.97868e-05
614 *25:843 4.0595e-05
615 *25:844 0.000943814
616 *25:846 6.08925e-05
617 *25:847 3.60082e-05
618 *25:848 0.00037001
619 *25:850 0.000176229
620 *25:853 4.0595e-05
621 *25:854 8.11899e-05
622 *25:855 0.000188763
623 *25 6.98681e-06
624 *25:864 8.11899e-05
625 *25:865 2.02975e-05
626 *25:870 2.02975e-05

*RES
1 *25:872 *947:SE 1.4
2 *25:870 *25:872 1.4
3 *25:869 *917:SE 1.4
4 *25:865 *25:870 0.124288
5 *25:864 *25:869 1.4
6 *25:863 *920:SE 1.4
7 *25:858 *888:SE 1.4
8 *25:857 *944:SE 1.4
9 *25:855 *25:865 1.4
10 *25:854 *25:864 0.497153
11 *25:853 *25:863 1.4
12 *25:852 *922:SE 1.4
13 *25:850 *918:SE 1.4
14 *25:849 *956:SE 1.4
15 *25:848 *25 0.0514273
16 *25:847 *25:858 1.4
17 *25:846 *25:857 1.4
18 *25:845 *921:SE 1.4
19 *25:844 *25:855 1.11855
20 *25:844 *25:854 1.4
21 *25:843 *25:853 0.248577
22 *25:842 *25:852 1.4
23 *25:841 *923:SE 1.4
24 *25:841 *25:850 1.1186
25 *25:840 *25:849 1.4
26 *25:839 *25:848 2.67208
27 *25:837 *25:847 0.248566
28 *25:836 *25:846 0.372865
29 *25:835 *25:845 1.4
30 *25:833 *25:844 4.47419
31 *25:833 *25:843 1.4
32 *25:832 *25:842 0.124283
33 *25:831 *25:841 1.4
34 *25:830 *25:840 0.248565
35 *25:829 *25:839 1.4
36 *25:827 *887:SE 1.4
37 *25:826 *25:837 1.4
38 *25:825 *25:836 1.4
39 *25:824 *25:835 0.124283
40 *25:823 *648:SE 1.4
41 *25:822 *25:833 2.23715
42 *25:822 *25:832 1.4
43 *25:821 *25:831 0.248565
44 *25:819 *25:830 1.4
45 *25:819 *25:829 1.11859
46 *25:818 *881:SE 1.4
47 *25:817 *25:827 0.124289
48 *25:817 *25:826 2.11291
49 *25:816 *25:825 3.35565
50 *25:816 *25:824 1.4
51 *25:814 *25:823 1.4
52 *25:813 *25:822 3.3558
53 *25:813 *25:821 1.4
54 *25:811 *958:SE 1.4
55 *25:811 *25:819 1.11859
56 *25:810 *25:818 0.745732
57 *25:809 *25:817 1.4
58 *25:808 *25:816 2.2372
59 *25:808 *945:SE 1.4
60 *25:807 *25:814 0.621414
61 *25:805 *25:813 4.72297
62 *25:804 *957:SE 1.4
63 *25:804 *25:811 2.23719
64 *25:803 *25:810 1.4
65 *25:803 *25:809 0.248566
66 *25:802 *25:808 0.124289
67 *25:802 *25:807 1.4
68 *25:801 *868:SE 1.4
69 *25:800 *25:805 1.4
70 *25:799 *25:804 0.870021
71 *25:797 *25:803 1.61568
72 *25:796 *25:802 3.72866
73 *25:794 *25:801 0.124289
74 *25:793 *25:800 0.248565
75 *25:793 *25:799 1.4
76 *25:791 *650:SE 1.4
77 *25:790 *25:797 1.4
78 *25:789 *25:796 1.4
79 *25:788 *946:SE 1.4
80 *25:787 *25:794 1.4
81 *25:787 *25:793 0.372848
82 *25:786 *599:SE 1.4
83 *25:783 *25:791 0.248578
84 *25:783 *25:790 2.11291
85 *25:782 *25:789 0.497131
86 *25:781 *25:788 1.4
87 *25:780 *25:787 4.97131
88 *25:779 *25:786 1.4
89 *25:778 *528:SE 1.4
90 *25:774 *652:SE 1.4
91 *25:773 *25:783 1.4
92 *25:772 *25:782 1.4
93 *25:770 *25:781 0.497131
94 *25:769 *25:780 1.4
95 *25:768 *25:779 0.870021
96 *25:768 *25:778 1.4
97 *25:767 *526:SE 1.4
98 *25:766 *593:SE 1.4
99 *25:764 *683:SE 1.4
100 *25:763 *25:774 1.4
101 *25:762 *25:773 1.73996
102 *25:760 *25:772 0.745696
103 *25:760 *869:SE 1.4
104 *25:759 *25:770 1.4
105 *25:759 *25:769 1.36711
106 *25:758 *25:768 3.23151
107 *25:757 *25:767 1.4
108 *25:756 *25:766 1.4
109 *25:755 *682:SE 1.4
110 *25:754 *25:764 1.4
111 *25:753 *25:763 0.124283
112 *25:752 *25:762 1.4
113 *25:751 *651:SE 1.4
114 *25:750 *25:760 1.4
115 *25:749 *25:759 0.994261
116 *25:748 *25:758 1.4
117 *25:747 *25:757 0.124289
118 *25:746 *25:756 0.621444
119 *25:745 *25:755 0.621413
120 *25:744 *25:754 0.621444
121 *25:743 *25:753 1.4
122 *25:743 *25:752 1.6157
123 *25:741 *25:751 0.869979
124 *25:740 *25:750 0.124283
125 *25:740 *25:749 1.4
126 *25:739 *25:748 1.36718
127 *25:739 *25:747 1.4
128 *25:738 *25:746 1.4
129 *25:737 *25:745 1.4
130 *25:737 *25:744 0.124289
131 *25:736 *25:743 3.10707
132 *25:735 *649:SE 1.4
133 *25:734 *25:741 1.4
134 *25:734 *25:740 0.124283
135 *25:733 *25:739 2.2372
136 *25:733 *25:738 0.870021
137 *25:731 *25:737 1.36718
138 *25:730 *25:736 1.4
139 *25:729 *25:735 1.4
140 *25:729 *25:734 2.11281
141 *25:728 *25:733 1.4
142 *25:727 *607:SE 1.4
143 *25:726 *25:731 1.4
144 *25:725 *25:730 0.248566
145 *25:725 *25:729 0.994264
146 *25:722 *25:728 2.11291
147 *25:722 *25:727 1.4
148 *25:721 *25:726 1.49139
149 *25:719 *25:725 1.4
150 *25:718 *790:SE 1.4
151 *25:717 *899:SE 1.4
152 *25:716 *25:722 0.870021
153 *25:716 *25:721 1.4
154 *25:713 *858:SE 1.4
155 *25:713 *25:719 1.36711
156 *25:712 *25:718 0.124283
157 *25:711 *25:717 0.497132
158 *25:710 *25:716 0.124289
159 *25:709 *647:SE 1.4
160 *25:708 *658:SE 1.4
161 *25:707 *25:713 0.745696
162 *25:706 *25:712 1.4
163 *25:705 *25:711 1.4
164 *25:702 *25:710 1.4
165 *25:700 *25:709 1.4
166 *25:699 *25:708 0.124283
167 *25:698 *25:707 1.4
168 *25:697 *25:706 0.248566
169 *25:696 *25:705 0.745698
170 *25:695 *900:SE 1.4
171 *25:693 *601:SE 1.4
172 *25:692 *25:702 3.10707
173 *25:692 *600:SE 1.4
174 *25:690 *25:700 0.124283
175 *25:689 *25:699 1.4
176 *25:689 *25:698 0.248566
177 *25:688 *25:697 1.4
178 *25:686 *25:696 1.4
179 *25:685 *25:695 1.4
180 *25:684 *889:SE 1.4
181 *25:683 *25:693 1.4
182 *25:682 *25:692 1.4
183 *25:681 *588:SE 1.4
184 *25:680 *25:690 1.4
185 *25:679 *25:689 0.745698
186 *25:678 *25:688 1.73996
187 *25:677 *898:SE 1.4
188 *25:677 *25:686 0.372849
189 *25:674 *25:685 3.60421
190 *25:674 *25:684 1.4
191 *25:673 *25:683 0.994264
192 *25:673 *25:682 0.124283
193 *25:672 *25:681 1.4
194 *25:671 *25:680 0.869979
195 *25:670 *25:679 1.4
196 *25:669 *25:678 1.4
197 *25:668 *25:677 1.61568
198 *25:667 *906:SE 1.4
199 *25:666 *907:SE 1.4
200 *25:664 *25:674 0.124283
201 *25:663 *25:673 1.4
202 *25:662 *25:672 0.124283
203 *25:660 *25:671 1.4
204 *25:659 *25:670 1.49139
205 *25:658 *25:669 0.497132
206 *25:658 *25:668 1.4
207 *25:657 *25:667 0.248566
208 *25:656 *25:666 1.4
209 *25:655 *835:SE 1.4
210 *25:654 *25:664 1.4
211 *25:653 *25:663 1.36711
212 *25:653 *25:662 1.4
213 *25:652 *659:SE 1.4
214 *25:651 *25:660 0.248566
215 *25:651 *25:659 1.4
216 *25:650 *25:658 1.73996
217 *25:650 *25:657 1.4
218 *25:649 *25:656 1.36711
219 *25:649 *25:655 1.4
220 *25:648 *25:654 2.2371
221 *25:646 *25:653 0.869979
222 *25:645 *25:652 1.4
223 *25:645 *25:651 3.47992
224 *25:644 *25:650 0.124283
225 *25:643 *25:649 0.124283
226 *25:643 *25:648 1.4
227 *25:642 *856:SE 1.4
228 *25:640 *25:646 1.4
229 *25:640 *25:645 0.621415
230 *25:639 *25:644 1.4
231 *25:638 *25:643 0.124283
232 *25:637 *25:642 1.4
233 *25:636 *886:SE 1.4
234 *25:635 *25:640 0.248566
235 *25:633 *25:639 0.621415
236 *25:631 *25:638 1.4
237 *25:630 *25:637 0.994264
238 *25:630 *25:636 1.4
239 *25:629 *25:635 1.4
240 *25:626 *576:SE 1.4
241 *25:625 *25:633 1.4
242 *25:624 *777:SE 1.4
243 *25:623 *25:631 2.2371
244 *25:621 *25:630 0.124283
245 *25:619 *25:629 1.36711
246 *25:619 *575:SE 1.4
247 *25:618 *857:SE 1.4
248 *25:617 *25:626 0.124283
249 *25:616 *25:625 3.60421
250 *25:616 *25:624 1.4
251 *25:615 *25:623 1.4
252 *25:614 *895:SE 1.4
253 *25:613 *25:621 1.4
254 *25:612 *880:SE 1.4
255 *25:611 *25:619 3.23135
256 *25:610 *25:618 0.124283
257 *25:609 *25:617 1.4
258 *25:608 *25:616 2.23709
259 *25:608 *25:615 0.497132
260 *25:607 *25:614 0.124289
261 *25:607 *25:613 2.2372
262 *25:606 *25:612 1.4
263 *25:605 *25:611 1.4
264 *25:604 *25:610 1.4
265 *25:604 *25:609 0.869981
266 *25:603 *25:608 1.4
267 *25:601 *25:607 1.4
268 *25:601 *25:606 2.98279
269 *25:600 *25:605 0.124283
270 *25:600 *25:604 0.124283
271 *25:599 *25:603 1.49139
272 *25:598 *774:SE 1.4
273 *25:597 *25:601 0.124283
274 *25:596 *25:600 1.4
275 *25:595 *25:599 1.4
276 *25:594 *25:598 0.124283
277 *25:592 *25:597 1.4
278 *25:591 *25:596 1.24283
279 *25:590 *25:595 0.497132
280 *25:590 *25:594 1.4
281 *25:589 *839:SE 1.4
282 *25:588 *25:592 3.10712
283 *25:587 *25:591 1.4
284 *25:586 *25:590 0.497132
285 *25:584 *25:589 0.869979
286 *25:583 *25:588 1.4
287 *25:583 *25:587 0.124283
288 *25:582 *25:586 1.4
289 *25:581 *577:SE 1.4
290 *25:580 *25:584 1.4
291 *25:580 *25:583 0.497132
292 *25:579 *25:582 0.745696
293 *25:578 *25:581 1.4
294 *25:578 *25:580 1.61568
295 *25:576 *25:579 1.4
296 *25:576 *25:578 0.497132
297 *25:574 *584:SE 1.4
298 *25:571 *25:576 0.248566
299 *25:570 *579:SE 1.4
300 *25:569 *25:574 1.4
301 *25:568 *882:SE 1.4
302 *25:567 *903:SE 1.4
303 *25:566 *25:571 1.4
304 *25:565 *25:570 1.4
305 *25:563 *25:569 0.124283
306 *25:562 *25:568 1.4
307 *25:561 *25:567 0.124283
308 *25:561 *25:566 2.11281
309 *25:560 *25:565 0.124289
310 *25:559 *776:SE 1.4
311 *25:558 *25:563 1.4
312 *25:557 *25:562 0.124283
313 *25:556 *25:561 1.4
314 *25:554 *25:560 1.4
315 *25:553 *25:559 1.4
316 *25:552 *25:558 2.98278
317 *25:552 *25:557 1.4
318 *25:551 *25:556 1.86424
319 *25:550 *602:SE 1.4
320 *25:549 *25:554 0.745732
321 *25:548 *25:553 0.124283
322 *25:547 *25:552 0.372848
323 *25:546 *25:551 1.4
324 *25:544 *25:550 0.124289
325 *25:543 *25:549 1.4
326 *25:542 *25:548 1.4
327 *25:541 *25:547 1.4
328 *25:540 *25:546 1.24283
329 *25:539 *615:SE 1.4
330 *25:538 *25:544 1.4
331 *25:538 *25:543 1.61575
332 *25:537 *25:542 1.11854
333 *25:536 *25:541 0.248566
334 *25:536 *25:540 1.4
335 *25:535 *25:539 1.4
336 *25:534 *25:538 0.99431
337 *25:533 *25:537 1.4
338 *25:533 *25:536 1.98853
339 *25:532 *25:535 0.124289
340 *25:531 *25:534 1.4
341 *25:530 *25:533 0.497132
342 *25:528 *25:532 1.4
343 *25:527 *25:531 1.61575
344 *25:525 *25:530 1.4
345 *25:524 *603:SE 1.4
346 *25:523 *25:528 0.745732
347 *25:522 *25:527 1.4
348 *25:521 *781:SE 1.4
349 *25:521 *25:525 1.11854
350 *25:519 *25:524 0.124289
351 *25:518 *25:523 1.4
352 *25:518 *25:522 0.124289
353 *25:517 *25:521 1.49139
354 *25:516 *933:SE 1.4
355 *25:515 *25:519 1.4
356 *25:515 *25:518 0.621444
357 *25:513 *25:517 1.4
358 *25:511 *25:516 1.4
359 *25:511 *25:515 1.24289
360 *25:510 *905:SE 1.4
361 *25:509 *25:513 2.48566
362 *25:508 *875:SE 1.4
363 *25:507 *25:511 0.124289
364 *25:506 *25:510 0.124283
365 *25:506 *25:509 1.4
366 *25:504 *25:508 1.4
367 *25:503 *25:507 1.4
368 *25:501 *25:506 2.11281
369 *25:500 *865:SE 1.4
370 *25:499 *25:504 0.372849
371 *25:498 *25:503 0.870021
372 *25:497 *580:SE 1.4
373 *25:496 *25:501 1.4
374 *25:495 *25:500 2.23709
375 *25:495 *25:499 1.4
376 *25:493 *25:498 1.4
377 *25:492 *25:497 1.4
378 *25:492 *25:496 0.745698
379 *25:491 *25:495 3.10707
380 *25:491 *873:SE 1.4
381 *25:490 *25:493 0.994296
382 *25:489 *25:492 2.11281
383 *25:488 *25:491 0.124284
384 *25:486 *25:490 1.4
385 *25:483 *25:489 1.4
386 *25:482 *25:488 1.4
387 *25:481 *904:SE 1.4
388 *25:480 *25:486 0.745732
389 *25:480 *959:SE 1.4
390 *25:479 *821:SE 1.4
391 *25:478 *25:483 0.745696
392 *25:477 *25:482 2.60995
393 *25:476 *25:481 1.4
394 *25:475 *25:480 2.23718
395 *25:474 *25:479 0.124283
396 *25:473 *25:478 1.4
397 *25:472 *25:477 1.4
398 *25:471 *25:476 0.248567
399 *25:470 *25:475 1.4
400 *25:469 *25:474 1.4
401 *25:469 *25:473 0.124283
402 *25:468 *25:472 1.24284
403 *25:467 *25:471 1.4
404 *25:466 *25:470 0.248566
405 *25:466 *25:469 0.994264
406 *25:465 *25:468 1.4
407 *25:464 *25:467 0.869985
408 *25:462 *25:466 1.4
409 *25:461 *25:465 0.621417
410 *25:461 *25:464 1.4
411 *25:460 *668:SE 1.4
412 *25:459 *25:462 0.497131
413 *25:457 *25:461 1.73997
414 *25:455 *25:460 0.621413
415 *25:454 *25:459 1.4
416 *25:453 *866:SE 1.4
417 *25:453 *25:457 1.4
418 *25:452 *902:SE 1.4
419 *25:451 *25:455 1.4
420 *25:451 *25:454 0.124283
421 *25:449 *25:453 1.11855
422 *25:448 *25:452 0.248567
423 *25:447 *25:451 0.994265
424 *25:446 *901:SE 1.4
425 *25:445 *25:449 1.4
426 *25:444 *25:448 1.4
427 *25:442 *25:447 1.4
428 *25:439 *25:446 1.4
429 *25:438 *25:445 0.124283
430 *25:438 *25:444 1.61568
431 *25:437 *666:SE 1.4
432 *25:436 *25:442 0.248565
433 *25:436 *822:SE 1.4
434 *25:434 *874:SE 1.4
435 *25:433 *25:439 0.124283
436 *25:432 *25:438 1.4
437 *25:431 *25:437 1.4
438 *25:430 *25:436 1.4
439 *25:429 *672:SE 1.4
440 *25:428 *25:434 0.124283
441 *25:427 *25:433 1.4
442 *25:427 *25:432 1.11855
443 *25:426 *25:431 1.36711
444 *25:426 *25:430 0.124283
445 *25:425 *25:429 1.4
446 *25:423 *25:428 1.4
447 *25:422 *25:427 1.24283
448 *25:421 *25:426 1.4
449 *25:420 *25:425 0.372849
450 *25:418 *785:SE 1.4
451 *25:417 *25:423 0.372849
452 *25:417 *25:422 1.4
453 *25:416 *25:421 1.36711
454 *25:416 *25:420 1.4
455 *25:415 *867:SE 1.4
456 *25:414 *25:418 1.4
457 *25:413 *25:417 0.248566
458 *25:412 *25:416 0.248565
459 *25:411 *25:415 1.4
460 *25:410 *25:414 0.497132
461 *25:409 *25:413 1.4
462 *25:408 *25:412 1.4
463 *25:407 *25:411 0.248566
464 *25:406 *25:410 1.4
465 *25:406 *25:409 0.994261
466 *25:404 *25:408 0.621415
467 *25:403 *25:407 1.4
468 *25:403 *25:406 1.36711
469 *25:402 *786:SE 1.4
470 *25:401 *25:404 1.4
471 *25:399 *25:403 0.869979
472 *25:398 *25:402 1.4
473 *25:396 *25:401 0.621413
474 *25:396 *788:SE 1.4
475 *25:395 *25:399 1.4
476 *25:395 *25:398 3.72849
477 *25:394 *872:SE 1.4
478 *25:393 *25:396 1.4
479 *25:392 *25:395 0.248566
480 *25:391 *25:394 1.4
481 *25:391 *25:393 1.61568
482 *25:389 *25:392 1.4
483 *25:388 *25:391 0.124283
484 *25:387 *871:SE 1.4
485 *25:387 *25:389 1.36711
486 *25:385 *25:388 1.4
487 *25:384 *25:387 0.869979
488 *25:383 *671:SE 1.4
489 *25:382 *25:385 1.36711
490 *25:381 *25:384 1.4
491 *25:380 *25:383 1.4
492 *25:379 *25:382 1.4
493 *25:379 *25:381 0.124283
494 *25:378 *25:380 0.497132
495 *25:378 *25:379 1.86425
496 *25:375 *25:378 1.4
497 *25:374 *968:SE 1.4
498 *25:371 *670:SE 1.4
499 *25:371 *25:375 2.23709
500 *25:367 *25:374 1.4
501 *25:366 *965:SE 1.4
502 *25:364 *870:SE 1.4
503 *25:363 *25:371 3.72854
504 *25:362 *876:SE 1.4
505 *25:361 *667:SE 1.4
506 *25:360 *963:SE 1.4
507 *25:359 *25:367 0.124289
508 *25:358 *25:366 1.4
509 *25:357 *948:SE 1.4
510 *25:353 *25:364 1.4
511 *25:352 *25:363 1.4
512 *25:351 *25:362 0.621444
513 *25:351 *25:361 0.124289
514 *25:350 *25:360 3.35578
515 *25:350 *25:359 1.4
516 *25:349 *25:358 0.248578
517 *25:348 *25:357 1.4
518 *25:347 *932:SE 1.4
519 *25:345 *673:SE 1.4
520 *25:344 *877:SE 1.4
521 *25:343 *25:353 0.124283
522 *25:342 *25:352 0.621415
523 *25:342 *25:351 1.4
524 *25:341 *25:350 1.11859
525 *25:341 *25:349 1.4
526 *25:340 *25:348 0.497155
527 *25:339 *25:347 1.4
528 *25:338 *896:SE 1.4
529 *25:336 *25:345 3.85294
530 *25:335 *25:344 0.124289
531 *25:334 *25:343 1.4
532 *25:333 *25:342 0.869981
533 *25:332 *25:341 2.23719
534 *25:332 *25:340 1.4
535 *25:331 *25:339 0.124283
536 *25:330 *25:338 1.4
537 *25:329 *523:SE 1.4
538 *25:328 *25:336 1.4
539 *25:327 *25:335 1.4
540 *25:326 *25:334 1.36718
541 *25:325 *25:333 1.4
542 *25:323 *25:332 3.35579
543 *25:323 *25:331 1.4
544 *25:322 *25:330 0.124283
545 *25:321 *25:329 1.4
546 *25:320 *25:328 0.124283
547 *25:320 *25:327 0.869981
548 *25:319 *25:326 1.4
549 *25:318 *25:325 3.10722
550 *25:317 *669:SE 1.4
551 *25:316 *25:323 2.2372
552 *25:316 *25:322 1.4
553 *25:315 *25:321 0.248566
554 *25:314 *25:320 1.4
555 *25:313 *25:319 0.372849
556 *25:313 *25:318 1.4
557 *25:312 *25:317 0.124289
558 *25:311 *25:316 1.24289
559 *25:310 *25:315 1.4
560 *25:310 *25:314 1.98862
561 *25:309 *25:313 0.124283
562 *25:309 *25:312 1.4
563 *25:307 *25:311 1.4
564 *25:306 *25:310 0.870021
565 *25:304 *25:309 1.11855
566 *25:303 *964:SE 1.4
567 *25:302 *25:307 0.372849
568 *25:302 *25:306 1.4
569 *25:301 *524:SE 1.4
570 *25:299 *25:304 1.4
571 *25:299 *25:303 0.248577
572 *25:297 *25:302 2.60994
573 *25:297 *25:301 1.4
574 *25:296 *525:SE 1.4
575 *25:295 *25:299 2.11291
576 *25:294 *936:SE 1.4
577 *25:293 *25:297 1.98853
578 *25:293 *25:296 1.4
579 *25:292 *25:295 1.4
580 *25:291 *25:294 1.4
581 *25:290 *25:293 0.248566
582 *25:290 *25:292 0.745698
583 *25:289 *25:291 0.124283
584 *25:288 *25:290 1.4
585 *25:287 *25:289 1.4
586 *25:286 *25:288 2.36149
587 *25:285 *25:287 1.1186
588 *25:284 *25:286 1.4
589 *25:283 *25:285 1.4
590 *25:281 *25:284 0.372849
591 *25:281 *25:283 1.36711
592 *25:280 *928:SE 1.4
593 *25:280 *25:281 1.4
594 *25:278 *25:280 0.124289
595 *25:277 *916:SE 1.4
596 *25:275 *25:278 1.4
597 *25:274 *25:277 1.4
598 *25:273 *931:SE 1.4
599 *25:272 *25:275 1.24283
600 *25:271 *25:274 0.372849
601 *25:270 *25:273 0.124289
602 *25:270 *25:272 1.4
603 *25:269 *25:271 1.4
604 *25:269 *25:270 2.11291
605 *25:266 *25:269 1.11859
606 *25:265 *929:SE 1.4
607 *25:264 *897:SE 1.4
608 *25:263 *25:266 1.4
609 *25:262 *25:265 1.4
610 *25:261 *25:264 1.4
611 *25:260 *25:263 0.124289
612 *25:260 *25:262 0.99431
613 *25:259 *25:261 0.124289
614 *25:258 *25:260 1.4
615 *25:257 *25:259 1.4
616 *25:257 *25:258 2.23719
617 *25:256 *25:257 0.248576
618 *25:255 *25:256 1.4
619 *25:253 *25:255 1.1186
620 *25:252 *967:SE 1.4
621 *25:251 *25:253 1.4
622 *25:249 *25:252 1.4
623 *25:248 *25:251 0.870017
624 *25:247 *962:SE 1.4
625 *25:246 *25:249 0.99431
626 *25:246 *25:248 1.4
627 *25:245 *25:247 1.11859
628 *25:243 *25:246 0.124289
629 *25:242 *25:245 1.4
630 *25:241 *966:SE 1.4
631 *25:238 *25:243 1.4
632 *25:237 *25:242 1.61575
633 *25:237 *25:241 1.4
634 *25:236 *960:SE 1.4
635 *25:235 *961:SE 1.4
636 *25:235 *25:238 1.11859
637 *25:234 *25:237 0.745732
638 *25:234 *25:236 1.4
639 *25:233 *25:235 1.11859
640 *25:232 *25:234 0.124289
641 *25:232 *25:233 1.4
642 *25:231 *25:232 0.497155
643 *25:230 *25:231 1.4
644 *25:229 *25:230 1.11859
645 *25:226 *25:229 1.4
646 *25:225 *942:SE 1.4
647 *25:224 *950:SE 1.4
648 *25:223 *25:226 2.48577
649 *25:223 *25:225 1.4
650 *25:222 *25:224 2.23719
651 *25:220 *25:223 2.23719
652 *25:220 *25:222 1.4
653 *25:219 *949:SE 1.4
654 *25:218 *25:220 0.870019
655 *25:217 *25:219 1.4
656 *25:216 *25:218 1.4
657 *25:215 *25:217 0.994307
658 *25:213 *25:216 0.248577
659 *25:212 *25:215 1.4
660 *25:212 *952:SE 1.4
661 *25:211 *25:213 1.4
662 *25:210 *25:212 0.870019
663 *25:209 *25:211 2.1129
664 *25:209 *25:210 1.4
665 *25:208 *25:209 0.124288
666 *25:207 *25:208 1.4
667 *25:205 *25:207 0.248577
668 *25:205 *951:SE 1.4
669 *25:203 *25:205 1.1186
670 *25:200 *941:SE 1.4
671 *25:199 *25:203 1.4
672 *25:198 *930:SE 1.4
673 *25:197 *940:SE 1.4
674 *25:196 *25:200 1.4
675 *25:194 *25:199 1.74004
676 *25:194 *25:198 1.4
677 *25:193 *25:197 1.4
678 *25:191 *25:196 0.870021
679 *25:190 *598:SE 1.4
680 *25:189 *25:194 0.124288
681 *25:189 *25:193 0.248577
682 *25:188 *939:SE 1.4
683 *25:187 *25:191 1.4
684 *25:187 *25:190 0.99431
685 *25:186 *25:189 1.4
686 *25:184 *25:188 1.4
687 *25:183 *25:187 2.23719
688 *25:182 *25:186 4.47438
689 *25:181 *841:SE 1.4
690 *25:180 *25:184 0.497153
691 *25:180 *25:183 1.4
692 *25:179 *25:182 1.4
693 *25:178 *25:181 0.124288
694 *25:176 *25:180 2.85863
695 *25:176 *25:179 0.248577
696 *25:175 *25:178 1.4
697 *25:174 *546:SE 1.4
698 *25:172 *25:176 1.4
699 *25:171 *25:175 1.1186
700 *25:170 *25:174 1.4
701 *25:169 *534:SE 1.4
702 *25:168 *25:172 0.870019
703 *25:168 *25:171 1.4
704 *25:167 *25:170 0.124289
705 *25:166 *25:169 1.4
706 *25:165 *25:168 0.124288
707 *25:164 *25:167 1.4
708 *25:162 *25:166 0.124289
709 *25:161 *25:165 1.4
710 *25:160 *25:164 1.36717
711 *25:159 *547:SE 1.4
712 *25:158 *25:162 1.4
713 *25:157 *25:161 0.248577
714 *25:157 *25:160 1.4
715 *25:156 *25:159 0.870019
716 *25:154 *25:158 0.869979
717 *25:153 *25:157 0.248577
718 *25:153 *25:156 1.4
719 *25:152 *549:SE 1.4
720 *25:150 *25:154 1.4
721 *25:148 *25:153 2.61006
722 *25:148 *25:152 1.4
723 *25:147 *529:SE 1.4
724 *25:146 *25:150 1.98862
725 *25:145 *925:SE 1.4
726 *25:143 *25:148 1.36717
727 *25:142 *25:147 1.4
728 *25:141 *25:146 1.4
729 *25:140 *25:145 1.4
730 *25:139 *927:SE 1.4
731 *25:136 *25:143 1.4
732 *25:135 *25:142 1.4
733 *25:135 *25:141 0.497155
734 *25:134 *25:140 0.870018
735 *25:133 *25:139 1.4
736 *25:132 *926:SE 1.4
737 *25:131 *909:SE 1.4
738 *25:129 *25:136 0.248577
739 *25:129 *25:135 1.98862
740 *25:128 *25:134 1.4
741 *25:127 *25:133 0.497153
742 *25:126 *25:132 1.4
743 *25:125 *25:131 1.4
744 *25:123 *532:SE 1.4
745 *25:122 *25:129 1.4
746 *25:121 *25:128 1.11854
747 *25:121 *25:127 1.4
748 *25:120 *25:126 0.124288
749 *25:119 *25:125 1.61575
750 *25:118 *537:SE 1.4
751 *25:117 *25:123 1.4
752 *25:116 *25:122 1.74004
753 *25:115 *25:121 1.11854
754 *25:115 *25:120 1.4
755 *25:113 *25:119 1.4
756 *25:111 *25:118 1.4
757 *25:110 *25:117 0.621442
758 *25:109 *25:116 1.4
759 *25:108 *25:115 0.745696
760 *25:107 *924:SE 1.4
761 *25:106 *25:113 3.35563
762 *25:106 *953:SE 1.4
763 *25:105 *25:111 0.124288
764 *25:104 *25:110 1.4
765 *25:104 *25:109 0.248565
766 *25:103 *25:108 1.4
767 *25:102 *25:107 0.124283
768 *25:101 *25:106 1.36711
769 *25:100 *25:105 1.4
770 *25:100 *25:104 0.869979
771 *25:98 *25:103 1.24288
772 *25:97 *25:102 1.4
773 *25:96 *25:101 1.4
774 *25:95 *25:100 2.11281
775 *25:94 *538:SE 1.4
776 *25:93 *25:98 1.4
777 *25:92 *25:97 1.36717
778 *25:90 *25:96 0.621442
779 *25:90 *25:95 1.4
780 *25:89 *25:94 0.124283
781 *25:88 *25:93 0.497131
782 *25:88 *25:92 1.4
783 *25:86 *938:SE 1.4
784 *25:85 *25:90 1.24288
785 *25:85 *25:89 1.4
786 *25:84 *25:88 1.24283
787 *25:83 *937:SE 1.4
788 *25:81 *25:86 1.4
789 *25:80 *25:85 2.48577
790 *25:80 *25:84 1.4
791 *25:79 *25:83 0.248565
792 *25:78 *843:SE 1.4
793 *25:76 *25:81 0.124288
794 *25:75 *25:80 0.248577
795 *25:75 *25:79 1.4
796 *25:74 *25:78 1.4
797 *25:73 *908:SE 1.4
798 *25:72 *25:76 1.4
799 *25:71 *25:75 0.124288
800 *25:70 *25:74 0.124288
801 *25:69 *25:73 0.124283
802 *25:68 *25:72 1.24283
803 *25:67 *25:71 1.4
804 *25:66 *25:70 1.4
805 *25:65 *25:69 1.4
806 *25:64 *25:68 1.4
807 *25:63 *25:67 1.98852
808 *25:63 *25:66 0.124283
809 *25:61 *25:65 0.372865
810 *25:61 *25:64 0.124288
811 *25:60 *25:63 1.4
812 *25:59 *954:SE 1.4
813 *25:58 *25:61 1.4
814 *25:56 *25:60 0.497153
815 *25:56 *25:59 1.4
816 *25:55 *25:58 2.11281
817 *25:54 *934:SE 1.4
818 *25:52 *25:56 4.35009
819 *25:51 *25:55 1.4
820 *25:50 *25:54 1.4
821 *25:49 *955:SE 1.4
822 *25:48 *25:52 1.4
823 *25:47 *25:51 0.124288
824 *25:47 *25:50 1.86426
825 *25:46 *25:49 0.124283
826 *25:46 *25:48 0.994261
827 *25:45 *25:47 1.4
828 *25:43 *25:46 1.4
829 *25:42 *25:45 2.36137
830 *25:40 *919:SE 1.4
831 *25:38 *25:43 0.248577
832 *25:38 *25:42 1.4
833 *25:37 *915:SE 1.4
834 *25:36 *25:40 3.35564
835 *25:34 *911:SE 1.4
836 *25:33 *25:38 0.372862
837 *25:32 *25:37 1.4
838 *25:31 *25:36 1.4
839 *25:30 *914:SE 1.4
840 *25:29 *25:34 0.124283
841 *25:29 *25:33 1.4
842 *25:28 *25:32 0.87002
843 *25:28 *25:31 0.248577
844 *25:27 *25:30 1.4
845 *25:26 *25:29 2.11282
846 *25:25 *25:28 1.4
847 *25:24 *25:27 0.248574
848 *25:24 *25:26 1.4
849 *25:23 *25:25 1.11855
850 *25:22 *25:24 0.248567
851 *25:22 *25:23 1.4
852 *25:20 *25:22 4.72277
853 *25:18 *912:SE 1.4
854 *25:17 *25:20 1.4
855 *25:17 *913:SE 1.4
856 *25:15 *25:18 1.4
857 *25:14 *25:17 1.11855
858 *25:13 *910:SE 1.4
859 *25:12 *25:15 0.124283
860 *25:12 *25:14 1.4
861 *25:11 *25:13 1.4
862 *25:10 *25:12 0.37285
863 *25:8 *25:11 0.248567
864 *25:7 *25:10 1.4
865 *25:6 *943:SE 1.4
866 *25:5 *25:8 1.4
867 *25:5 *25:7 2.2371
868 *25:4 *25:6 1.11855
869 *25:4 *25:5 2.2371
870 *25:3 *25:4 1.4
871 *25:2 *25:3 0.124283
872 *25:1 *25:2 1.4
873 *935:SE *25:1 1.4
*END

*D_NET *26 0.00351732

*CONN
*I *868:SI I *C 89.465 73.225 *L 0.00271 *D SDFFRHQX8
*P *26 I *C 96.57 94.25 *L 0

*CAP
1 *26:2 0.000474884
2 *26:3 0.000474884
3 *26:4 0.00126689
4 *26:5 0.00126689
5 *26:6 8.4424e-06
6 *26:7 1.68848e-05
7 *26 8.4424e-06

*RES
1 *26:7 *26 0.0621413
2 *26:6 *26:7 0.0621413
3 *26:5 *26:6 1.4
4 *26:4 *26:5 8.94872
5 *26:3 *26:4 1.4
6 *26:2 *26:3 2.98278
7 *26:1 *26:2 1.4
8 *868:SI *26:1 1.4
*END

*D_NET *27 0.00140665

*CONN
*I *896:SI I *C 5.945 33.785 *L 0.00268 *D SDFFRHQX4
*P *27 I *C 0 37.025 *L 0

*CAP
1 *27:1 2.2759e-05
2 *27:2 2.2759e-05
3 *27:3 0.00032868
4 *27:4 0.00032868
5 *27:5 0.00022759
6 *27:6 0.00022759
7 *27:7 0.000120516
8 *27:8 0.000124294
9 *27 3.77793e-06

*RES
1 *27:8 *27 0.0214281
2 *27:7 *27:8 0.683557
3 *27:6 *27:7 1.4
4 *27:5 *27:6 1.24289
5 *27:4 *27:5 1.4
6 *27:3 *27:4 1.86425
7 *27:2 *27:3 1.4
8 *27:1 *27:2 0.124289
9 *896:SI *27:1 1.4
*END

*D_NET *28 0.00155799

*CONN
*I *917:D I *C 90.045 39.005 *L 0.00289 *D SDFFRHQX4
*P *28 I *C 96.57 35.345 *L 0

*CAP
1 *28:1 0.000293631
2 *28:2 0.000293631
3 *28:3 0.000446545
4 *28:4 0.000446545
5 *28:5 2.09736e-05
6 *28:6 2.09736e-05
7 *28:7 1.01487e-05
8 *28:8 1.78478e-05
9 *28 7.69905e-06

*RES
1 *28:8 *28 0.0471438
2 *28:7 *28:8 0.0621442
3 *28:6 *28:7 1.4
4 *28:5 *28:6 0.124283
5 *28:4 *28:5 1.4
6 *28:3 *28:4 2.73434
7 *28:2 *28:3 1.4
8 *28:1 *28:2 1.73996
9 *917:D *28:1 1.4
*END

*D_NET *29 0.00183917

*CONN
*I *947:D I *C 89.175 36.975 *L 0.00289 *D SDFFRHQX4
*P *29 I *C 96.57 31.415 *L 0

*CAP
1 *29:1 0.000398499
2 *29:2 0.000398499
3 *29:3 0.000517586
4 *29:4 0.000521085
5 *29 3.49957e-06

*RES
1 *29:4 *29 0.021429
2 *29:3 *29:4 3.16935
3 *29:2 *29:3 1.4
4 *29:1 *29:2 2.36138
5 *947:D *29:1 1.4
*END

*D_NET *30 0.0032061

*CONN
*I *915:D I *C 74.965 26.535 *L 0.00289 *D SDFFRHQX4
*P *30 I *C 96.57 27.49 *L 0

*CAP
1 *30:1 2.33434e-05
2 *30:2 2.33434e-05
3 *30:3 0.00152166
4 *30:4 0.00152166
5 *30:5 4.19473e-05
6 *30:6 4.19473e-05
7 *30:7 1.01487e-05
8 *30:8 1.6098e-05
9 *30 5.94926e-06

*RES
1 *30:8 *30 0.0364293
2 *30:7 *30:8 0.0621442
3 *30:6 *30:7 1.4
4 *30:5 *30:6 0.248566
5 *30:4 *30:5 1.4
6 *30:3 *30:4 9.19734
7 *30:2 *30:3 1.4
8 *30:1 *30:2 0.124283
9 *915:D *30:1 1.4
*END

*D_NET *31 0.00268781

*CONN
*I *914:D I *C 75.835 23.345 *L 0.00289 *D SDFFRHQX4
*P *31 I *C 96.57 23.56 *L 0

*CAP
1 *31:2 0.00131187
2 *31:3 0.00131187
3 *31:4 1.81941e-05
4 *31:5 1.81941e-05
5 *31:6 9.12145e-06
6 *31:7 1.38394e-05
7 *31 4.71799e-06

*RES
1 *31:7 *31 0.0321423
2 *31:6 *31:7 0.0621417
3 *31:5 *31:6 1.4
4 *31:4 *31:5 0.124283
5 *31:3 *31:4 1.4
6 *31:2 *31:3 8.82416
7 *31:1 *31:2 1.4
8 *914:D *31:1 1.4
*END

*D_NET *32 0.0016297

*CONN
*I *913:D I *C 88.015 23.345 *L 0.00289 *D SDFFRHQX4
*P *32 I *C 96.57 19.635 *L 0

*CAP
1 *32:1 0.000254717
2 *32:2 0.000254717
3 *32:3 0.000529044
4 *32:4 0.000529044
5 *32:5 1.81941e-05
6 *32:6 1.81941e-05
7 *32:7 9.12145e-06
8 *32:8 1.28958e-05
9 *32 3.77439e-06

*RES
1 *32:8 *32 0.0257138
2 *32:7 *32:8 0.0621417
3 *32:6 *32:7 1.4
4 *32:5 *32:6 0.124283
5 *32:4 *32:5 1.4
6 *32:3 *32:4 3.60422
7 *32:2 *32:3 1.4
8 *32:1 *32:2 1.73997
9 *913:D *32:1 1.4
*END

*D_NET *33 0.00181595

*CONN
*I *912:D I *C 88.305 21.315 *L 0.00289 *D SDFFRHQX4
*P *33 I *C 96.57 15.71 *L 0

*CAP
1 *33:1 1.81941e-05
2 *33:2 1.81941e-05
3 *33:3 0.000510801
4 *33:4 0.000510801
5 *33:5 0.000363882
6 *33:6 0.000363882
7 *33:7 9.12145e-06
8 *33:8 1.50976e-05
9 *33 5.97612e-06

*RES
1 *33:8 *33 0.0407135
2 *33:7 *33:8 0.0621417
3 *33:6 *33:7 1.4
4 *33:5 *33:6 2.48567
5 *33:4 *33:5 1.4
6 *33:3 *33:4 3.47994
7 *33:2 *33:3 1.4
8 *33:1 *33:2 0.124283
9 *912:D *33:1 1.4
*END

*D_NET *34 0.00297546

*CONN
*I *911:D I *C 80.475 18.125 *L 0.00289 *D SDFFRHQX4
*P *34 I *C 96.57 11.78 *L 0

*CAP
1 *34:2 1.82429e-05
2 *34:3 1.82429e-05
3 *34:4 0.000436658
4 *34:5 0.000436658
5 *34:6 0.000985116
6 *34:7 0.000985116
7 *34:8 3.63882e-05
8 *34:9 3.63882e-05
9 *34:10 9.12145e-06
10 *34:11 1.13232e-05
11 *34 2.20173e-06

*RES
1 *34:11 *34 0.0149997
2 *34:10 *34:11 0.0621417
3 *34:9 *34:10 1.4
4 *34:8 *34:9 0.248567
5 *34:7 *34:8 1.4
6 *34:6 *34:7 6.7113
7 *34:5 *34:6 1.4
8 *34:4 *34:5 2.9828
9 *34:3 *34:4 1.4
10 *34:2 *34:3 0.124283
11 *34:1 *34:2 1.4
12 *911:D *34:1 1.4
*END

*D_NET *35 0.00214678

*CONN
*I *910:D I *C 87.725 16.095 *L 0.00289 *D SDFFRHQX4
*P *35 I *C 96.57 7.855 *L 0

*CAP
1 *35:2 0.000547287
2 *35:3 0.000547287
3 *35:4 0.000509434
4 *35:5 0.000509434
5 *35:6 9.12145e-06
6 *35:7 1.66702e-05
7 *35 7.54878e-06

*RES
1 *35:7 *35 0.0514276
2 *35:6 *35:7 0.0621417
3 *35:5 *35:6 1.4
4 *35:4 *35:5 3.47994
5 *35:3 *35:4 1.4
6 *35:2 *35:3 3.7285
7 *35:1 *35:2 1.4
8 *910:D *35:1 1.4
*END

*D_NET *36 0.00145274

*CONN
*I *918:D I *C 88.305 65.105 *L 0.00289 *D SDFFRHQX4
*P *36 I *C 96.57 66.76 *L 0

*CAP
1 *36:1 0.000137067
2 *36:2 0.000137067
3 *36:3 0.000554031
4 *36:4 0.000554031
5 *36:5 1.9581e-05
6 *36:6 1.9581e-05
7 *36:7 9.89341e-06
8 *36:8 1.5693e-05
9 *36 5.79958e-06

*RES
1 *36:8 *36 0.0364277
2 *36:7 *36:8 0.0621413
3 *36:6 *36:7 1.4
4 *36:5 *36:6 0.124289
5 *36:4 *36:5 1.4
6 *36:3 *36:4 3.47991
7 *36:2 *36:3 1.4
8 *36:1 *36:2 0.870021
9 *918:D *36:1 1.4
*END

*D_NET *37 0.00117315

*CONN
*I *923:D I *C 88.305 63.075 *L 0.00289 *D SDFFRHQX4
*P *37 I *C 96.57 62.83 *L 0

*CAP
1 *37:1 1.9581e-05
2 *37:2 1.9581e-05
3 *37:3 0.000563924
4 *37:4 0.000566995
5 *37 3.07037e-06

*RES
1 *37:4 *37 0.0192852
2 *37:3 *37:4 3.54206
3 *37:2 *37:3 1.4
4 *37:1 *37:2 0.124289
5 *923:D *37:1 1.4
*END

*D_NET *38 0.00224927

*CONN
*I *945:D I *C 81.345 57.855 *L 0.00289 *D SDFFRHQX4
*P *38 I *C 96.57 58.905 *L 0

*CAP
1 *38:2 0.00102891
2 *38:3 0.00102891
3 *38:4 7.83242e-05
4 *38:5 7.83242e-05
5 *38:6 9.89341e-06
6 *38:7 1.73988e-05
7 *38 7.50534e-06

*RES
1 *38:7 *38 0.0471417
2 *38:6 *38:7 0.0621413
3 *38:5 *38:6 1.4
4 *38:4 *38:5 0.497155
5 *38:3 *38:4 1.4
6 *38:2 *38:3 6.4627
7 *38:1 *38:2 1.4
8 *945:D *38:1 1.4
*END

*D_NET *39 0.0010517

*CONN
*I *922:D I *C 89.175 54.665 *L 0.00289 *D SDFFRHQX4
*P *39 I *C 96.57 54.98 *L 0

*CAP
1 *39:1 1.9581e-05
2 *39:2 1.9581e-05
3 *39:3 0.000504564
4 *39:4 0.00050627
5 *39 1.70576e-06

*RES
1 *39:4 *39 0.010714
2 *39:3 *39:4 3.16921
3 *39:2 *39:3 1.4
4 *39:1 *39:2 0.124289
5 *922:D *39:1 1.4
*END

*D_NET *40 0.0023151

*CONN
*I *921:D I *C 81.635 52.635 *L 0.00289 *D SDFFRHQX4
*P *40 I *C 96.57 51.05 *L 0

*CAP
1 *40:1 6.0832e-05
2 *40:2 6.0832e-05
3 *40:3 0.00103517
4 *40:4 0.00103517
5 *40:5 4.19473e-05
6 *40:6 4.19473e-05
7 *40:7 1.01487e-05
8 *40:8 1.95976e-05
9 *40 9.44883e-06

*RES
1 *40:8 *40 0.0578584
2 *40:7 *40:8 0.0621442
3 *40:6 *40:7 1.4
4 *40:5 *40:6 0.248566
5 *40:4 *40:5 1.4
6 *40:3 *40:4 6.3387
7 *40:2 *40:3 1.4
8 *40:1 *40:2 0.372858
9 *921:D *40:1 1.4
*END

*D_NET *41 0.00133015

*CONN
*I *920:D I *C 89.465 49.445 *L 0.00289 *D SDFFRHQX4
*P *41 I *C 96.57 47.125 *L 0

*CAP
1 *41:1 0.000167789
2 *41:2 0.000167789
3 *41:3 0.000497288
4 *41 0.000497288

*RES
1 *41:3 *41 3.04506
2 *41:2 *41:3 1.4
3 *41:1 *41:2 0.994265
4 *920:D *41:1 1.4
*END

*D_NET *42 0.00219544

*CONN
*I *944:D I *C 82.215 44.225 *L 0.00289 *D SDFFRHQX4
*P *42 I *C 96.57 43.195 *L 0

*CAP
1 *42:2 0.000994577
2 *42:3 0.000994577
3 *42:4 8.38946e-05
4 *42:5 8.38946e-05
5 *42:6 1.01487e-05
6 *42:7 1.92476e-05
7 *42 9.09887e-06

*RES
1 *42:7 *42 0.0557154
2 *42:6 *42:7 0.0621442
3 *42:5 *42:6 1.4
4 *42:4 *42:5 0.497132
5 *42:3 *42:4 1.4
6 *42:2 *42:3 6.09013
7 *42:1 *42:2 1.4
8 *944:D *42:1 1.4
*END

*D_NET *43 0.00289114

*CONN
*I *919:D I *C 81.635 33.785 *L 0.00289 *D SDFFRHQX4
*P *43 I *C 96.57 39.27 *L 0

*CAP
1 *43:2 0.00103517
2 *43:3 0.00103517
3 *43:4 0.000398499
4 *43:5 0.000398499
5 *43:6 1.01487e-05
6 *43:7 1.18985e-05
7 *43 1.74978e-06

*RES
1 *43:7 *43 0.0107145
2 *43:6 *43:7 0.0621442
3 *43:5 *43:6 1.4
4 *43:4 *43:5 2.36138
5 *43:3 *43:4 1.4
6 *43:2 *43:3 6.3387
7 *43:1 *43:2 1.4
8 *919:D *43:1 1.4
*END

*D_NET *44 0.00256939

*CONN
*I *967:D I *C 23.055 16.095 *L 0.00289 *D SDFFRHQX4
*P *44 I *C 24.14 0 *L 0

*CAP
1 *44:1 0.00119063
2 *44:2 0.00119063
3 *44:3 7.7639e-05
4 *44:4 7.7639e-05
5 *44:5 1.08239e-05
6 *44:6 1.64225e-05
7 *44 5.59858e-06

*RES
1 *44:6 *44 0.0321435
2 *44:5 *44:6 0.0621441
3 *44:4 *44:5 1.4
4 *44:3 *44:4 0.497155
5 *44:2 *44:3 1.4
6 *44:1 *44:2 6.83585
7 *967:D *44:1 1.4
*END

*D_NET *45 0.0019722

*CONN
*I *961:D I *C 20.445 12.905 *L 0.00289 *D SDFFRHQX4
*P *45 I *C 20.69 0 *L 0

*CAP
1 *45:2 1.94098e-05
2 *45:3 1.94098e-05
3 *45:4 0.000963329
4 *45:5 0.000966688
5 *45 3.35915e-06

*RES
1 *45:5 *45 0.0192861
2 *45:4 *45:5 5.53082
3 *45:3 *45:4 1.4
4 *45:2 *45:3 0.124289
5 *45:1 *45:2 1.4
6 *961:D *45:1 1.4
*END

*D_NET *46 0.00210061

*CONN
*I *960:D I *C 20.155 10.875 *L 0.00289 *D SDFFRHQX4
*P *46 I *C 17.24 0 *L 0

*CAP
1 *46:1 2.16478e-05
2 *46:2 2.16478e-05
3 *46:3 0.000194098
4 *46:4 0.000194098
5 *46:5 0.000833442
6 *46:6 0.000834562
7 *46 1.11972e-06

*RES
1 *46:6 *46 0.0064287
2 *46:5 *46:6 4.78509
3 *46:4 *46:5 1.4
4 *46:3 *46:4 1.24289
5 *46:2 *46:3 1.4
6 *46:1 *46:2 0.124288
7 *960:D *46:1 1.4
*END

*D_NET *47 0.0014997

*CONN
*I *962:D I *C 14.645 7.685 *L 0.00289 *D SDFFRHQX4
*P *47 I *C 13.795 0 *L 0

*CAP
1 *47:2 5.82293e-05
2 *47:3 5.82293e-05
3 *47:4 0.000454605
4 *47:5 0.000454605
5 *47:6 0.000116459
6 *47:7 0.000116459
7 *47:8 0.000119063
8 *47:9 0.000120556
9 *47 1.49295e-06

*RES
1 *47:9 *47 0.0085716
2 *47:8 *47:9 0.683585
3 *47:7 *47:8 1.4
4 *47:6 *47:7 0.745732
5 *47:5 *47:6 1.4
6 *47:4 *47:5 2.61005
7 *47:3 *47:4 1.4
8 *47:2 *47:3 0.372866
9 *47:1 *47:2 1.4
10 *962:D *47:1 1.4
*END

*D_NET *48 0.00120111

*CONN
*I *963:D I *C 7.685 5.655 *L 0.00289 *D SDFFRHQX4
*P *48 I *C 10.345 0 *L 0

*CAP
1 *48:1 0.000281422
2 *48:2 0.000281422
3 *48:3 0.000174688
4 *48:4 0.000174688
5 *48:5 0.000140711
6 *48:6 0.000144443
7 *48 3.73239e-06

*RES
1 *48:6 *48 0.021429
2 *48:5 *48:6 0.807873
3 *48:4 *48:5 1.4
4 *48:3 *48:4 1.1186
5 *48:2 *48:3 1.4
6 *48:1 *48:2 1.61575
7 *963:D *48:1 1.4
*END

*D_NET *49 0.00264484

*CONN
*I *966:D I *C 14.355 10.875 *L 0.00289 *D SDFFRHQX4
*P *49 I *C 6.895 0 *L 0

*CAP
1 *49:2 0.000504653
2 *49:3 0.000504653
3 *49:4 0.000811794
4 *49:5 0.000817766
5 *49 5.97182e-06

*RES
1 *49:5 *49 0.0342864
2 *49:4 *49:5 4.66081
3 *49:3 *49:4 1.4
4 *49:2 *49:3 3.23151
5 *49:1 *49:2 1.4
6 *966:D *49:1 1.4
*END

*D_NET *50 0.00292473

*CONN
*I *965:D I *C 7.105 16.095 *L 0.00289 *D SDFFRHQX4
*P *50 I *C 3.45 0 *L 0

*CAP
1 *50:1 0.00108239
2 *50:2 0.00108239
3 *50:3 0.000252327
4 *50:4 0.000252327
5 *50:5 0.000119063
6 *50:6 0.000127648
7 *50 8.58449e-06

*RES
1 *50:6 *50 0.0492867
2 *50:5 *50:6 0.683585
3 *50:4 *50:5 1.4
4 *50:3 *50:4 1.61575
5 *50:2 *50:3 1.4
6 *50:1 *50:2 6.21441
7 *965:D *50:1 1.4
*END

*D_NET *51 0.00300539

*CONN
*I *968:D I *C 7.395 12.905 *L 0.00289 *D SDFFRHQX4
*P *51 I *C 0 0 *L 0

*CAP
1 *51:1 2.16478e-05
2 *51:2 2.16478e-05
3 *51:3 0.000232917
4 *51:4 0.000232917
5 *51:5 0.000974153
6 *51:6 0.000974153
7 *51:7 0.000252327
8 *51:8 0.000252327
9 *51:9 1.08239e-05
10 *51:10 2.16478e-05
11 *51 1.08239e-05

*RES
1 *51:10 *51 0.0621441
2 *51:9 *51:10 0.0621441
3 *51:8 *51:9 1.4
4 *51:7 *51:8 1.61575
5 *51:6 *51:7 1.4
6 *51:5 *51:6 5.59297
7 *51:4 *51:5 1.4
8 *51:3 *51:4 1.49146
9 *51:2 *51:3 1.4
10 *51:1 *51:2 0.124288
11 *968:D *51:1 1.4
*END

*D_NET *52 0.00204565

*CONN
*I *953:D I *C 52.635 12.905 *L 0.00289 *D SDFFRHQX4
*P *52 I *C 51.725 0 *L 0

*CAP
1 *52:2 4.08765e-05
2 *52:3 4.08765e-05
3 *52:4 0.00094706
4 *52:5 0.00094706
5 *52:6 2.11565e-05
6 *52:7 2.11565e-05
7 *52:8 1.0762e-05
8 *52:9 1.37309e-05
9 *52 2.96884e-06

*RES
1 *52:9 *52 0.0171432
2 *52:8 *52:9 0.0621442
3 *52:7 *52:8 1.4
4 *52:6 *52:7 0.124288
5 *52:5 *52:6 1.4
6 *52:4 *52:5 5.46869
7 *52:3 *52:4 1.4
8 *52:2 *52:3 0.248577
9 *52:1 *52:2 1.4
10 *953:D *52:1 1.4
*END

*D_NET *53 0.0021228

*CONN
*I *940:D I *C 44.805 10.875 *L 0.00289 *D SDFFRHQX4
*P *53 I *C 48.28 0 *L 0

*CAP
1 *53:1 0.000667247
2 *53:2 0.000667247
3 *53:3 0.000253878
4 *53:4 0.000253878
5 *53:5 0.000139907
6 *53:6 0.000140278
7 *53 3.71105e-07

*RES
1 *53:6 *53 0.0021429
2 *53:5 *53:6 0.807875
3 *53:4 *53:5 1.4
4 *53:3 *53:4 1.49146
5 *53:2 *53:3 1.4
6 *53:1 *53:2 3.85294
7 *940:D *53:1 1.4
*END

*D_NET *54 0.00160478

*CONN
*I *952:D I *C 39.585 5.655 *L 0.00289 *D SDFFRHQX4
*P *54 I *C 44.83 0 *L 0

*CAP
1 *54:1 0.000301337
2 *54:2 0.000301337
3 *54:3 0.000380817
4 *54:4 0.000380817
5 *54:5 0.000118382
6 *54:6 0.000120238
7 *54 1.85552e-06

*RES
1 *54:6 *54 0.0107145
2 *54:5 *54:6 0.683586
3 *54:4 *54:5 1.4
4 *54:3 *54:4 2.23719
5 *54:2 *54:3 1.4
6 *54:1 *54:2 1.74004
7 *952:D *54:1 1.4
*END

*D_NET *55 0.00136051

*CONN
*I *951:D I *C 39.875 7.685 *L 0.00289 *D SDFFRHQX4
*P *55 I *C 41.38 0 *L 0

*CAP
1 *55:1 2.15241e-05
2 *55:2 2.15241e-05
3 *55:3 0.000105782
4 *55:4 0.000105782
5 *55:5 0.000548864
6 *55:6 0.000552946
7 *55 4.08215e-06

*RES
1 *55:6 *55 0.0235719
2 *55:5 *55:6 3.16935
3 *55:4 *55:5 1.4
4 *55:3 *55:4 0.621442
5 *55:2 *55:3 1.4
6 *55:1 *55:2 0.124288
7 *951:D *55:1 1.4
*END

*D_NET *56 0.00192386

*CONN
*I *930:D I *C 39.875 10.875 *L 0.00289 *D SDFFRHQX4
*P *56 I *C 37.935 0 *L 0

*CAP
1 *56:1 0.000667247
2 *56:2 0.000667247
3 *56:3 0.000148095
4 *56:4 0.000148095
5 *56:5 0.000139907
6 *56:6 0.000146586
7 *56 6.67989e-06

*RES
1 *56:6 *56 0.0385723
2 *56:5 *56:6 0.807875
3 *56:4 *56:5 1.4
4 *56:3 *56:4 0.870019
5 *56:2 *56:3 1.4
6 *56:1 *56:2 3.85294
7 *930:D *56:1 1.4
*END

*D_NET *57 0.00218733

*CONN
*I *950:D I *C 32.625 12.905 *L 0.00289 *D SDFFRHQX4
*P *57 I *C 34.485 0 *L 0

*CAP
1 *57:1 0.000839439
2 *57:2 0.000839439
3 *57:3 0.000126939
4 *57:4 0.000126939
5 *57:5 0.000118382
6 *57:6 0.000127289
7 *57 8.90652e-06

*RES
1 *57:6 *57 0.0514297
2 *57:5 *57:6 0.683586
3 *57:4 *57:5 1.4
4 *57:3 *57:4 0.74573
5 *57:2 *57:3 1.4
6 *57:1 *57:2 4.84725
7 *950:D *57:1 1.4
*END

*D_NET *58 0.00115641

*CONN
*I *949:D I *C 33.205 5.655 *L 0.00289 *D SDFFRHQX4
*P *58 I *C 31.035 0 *L 0

*CAP
1 *58:1 0.000279813
2 *58:2 0.000279813
3 *58:3 0.000148095
4 *58:4 0.000148095
5 *58:5 0.000139907
6 *58:6 0.000150297
7 *58 1.03909e-05

*RES
1 *58:6 *58 0.0600013
2 *58:5 *58:6 0.807875
3 *58:4 *58:5 1.4
4 *58:3 *58:4 0.870019
5 *58:2 *58:3 1.4
6 *58:1 *58:2 1.61575
7 *949:D *58:1 1.4
*END

*D_NET *59 0.00119868

*CONN
*I *942:D I *C 27.405 7.685 *L 0.00289 *D SDFFRHQX4
*P *59 I *C 27.59 0 *L 0

*CAP
1 *59:1 0.000452006
2 *59:2 0.000452006
3 *59:3 2.11565e-05
4 *59:4 2.11565e-05
5 *59:5 0.000118382
6 *59:6 0.000126176
7 *59 7.7932e-06

*RES
1 *59:6 *59 0.045001
2 *59:5 *59:6 0.683586
3 *59:4 *59:5 1.4
4 *59:3 *59:4 0.124288
5 *59:2 *59:3 1.4
6 *59:1 *59:2 2.61006
7 *942:D *59:1 1.4
*END

*D_NET *60 0.00106913

*CONN
*I *956:D I *C 88.885 83.955 *L 0.00289 *D SDFFRHQX4
*P *60 I *C 96.57 82.465 *L 0

*CAP
1 *60:1 5.08748e-05
2 *60:2 5.08748e-05
3 *60:3 0.000439005
4 *60:4 0.000439005
5 *60:5 3.39165e-05
6 *60:6 3.39165e-05
7 *60:7 8.4424e-06
8 *60:8 1.07713e-05
9 *60 2.32894e-06

*RES
1 *60:8 *60 0.0171424
2 *60:7 *60:8 0.0621413
3 *60:6 *60:7 1.4
4 *60:5 *60:6 0.248575
5 *60:4 *60:5 1.4
6 *60:3 *60:4 3.23135
7 *60:2 *60:3 1.4
8 *60:1 *60:2 0.372863
9 *956:D *60:1 1.4
*END

*D_NET *61 0.00124483

*CONN
*I *958:D I *C 88.305 80.765 *L 0.00289 *D SDFFRHQX4
*P *61 I *C 96.57 78.54 *L 0

*CAP
1 *61:1 0.000135666
2 *61:2 0.000135666
3 *61:3 0.000481217
4 *61:4 0.000486748
5 *61 5.53123e-06

*RES
1 *61:4 *61 0.0407133
2 *61:3 *61:4 3.54206
3 *61:2 *61:3 1.4
4 *61:1 *61:2 0.9943
5 *958:D *61:1 1.4
*END

*D_NET *62 0.00125352

*CONN
*I *957:D I *C 88.305 75.545 *L 0.00289 *D SDFFRHQX4
*P *62 I *C 96.57 74.615 *L 0

*CAP
1 *62:1 1.9581e-05
2 *62:2 1.9581e-05
3 *62:3 0.000554031
4 *62:4 0.000554031
5 *62:5 3.91621e-05
6 *62:6 3.91621e-05
7 *62:7 9.89341e-06
8 *62:8 1.39872e-05
9 *62 4.09382e-06

*RES
1 *62:8 *62 0.0257137
2 *62:7 *62:8 0.0621413
3 *62:6 *62:7 1.4
4 *62:5 *62:6 0.248578
5 *62:4 *62:5 1.4
6 *62:3 *62:4 3.47991
7 *62:2 *62:3 1.4
8 *62:1 *62:2 0.124289
9 *957:D *62:1 1.4
*END

*D_NET *63 0.0021659

*CONN
*I *946:D I *C 81.055 70.325 *L 0.00289 *D SDFFRHQX4
*P *63 I *C 96.57 70.685 *L 0

*CAP
1 *63:2 0.0010487
2 *63:3 0.0010487
3 *63:4 1.9581e-05
4 *63:5 1.9581e-05
5 *63:6 9.89341e-06
6 *63:7 1.46695e-05
7 *63 4.77613e-06

*RES
1 *63:7 *63 0.0299993
2 *63:6 *63:7 0.0621413
3 *63:5 *63:6 1.4
4 *63:4 *63:5 0.124289
5 *63:3 *63:4 1.4
6 *63:2 *63:3 6.58698
7 *63:1 *63:2 1.4
8 *946:D *63:1 1.4
*END

*D_NET *64 0.00214877

*CONN
*I *943:D I *C 87.145 7.685 *L 0.00289 *D SDFFRHQX4
*P *64 I *C 96.56 0 *L 0

*CAP
1 *64:1 0.000363882
2 *64:2 0.000363882
3 *64:3 0.000583773
4 *64:4 0.000583773
5 *64:5 0.000118262
6 *64:6 0.000126731
7 *64 8.46966e-06

*RES
1 *64:6 *64 0.0578561
2 *64:5 *64:6 0.807842
3 *64:4 *64:5 1.4
4 *64:3 *64:4 3.97707
5 *64:2 *64:3 1.4
6 *64:1 *64:2 2.48567
7 *943:D *64:1 1.4
*END

*D_NET *65 0.00247657

*CONN
*I *938:D I *C 79.315 5.655 *L 0.00289 *D SDFFRHQX4
*P *65 I *C 93.11 0 *L 0

*CAP
1 *65:1 0.000254717
2 *65:2 0.000254717
3 *65:3 0.000875659
4 *65:4 0.000875659
5 *65:5 0.000100067
6 *65:6 0.00010791
7 *65 7.84228e-06

*RES
1 *65:6 *65 0.0535704
2 *65:5 *65:6 0.683559
3 *65:4 *65:5 1.4
4 *65:3 *65:4 5.9656
5 *65:2 *65:3 1.4
6 *65:1 *65:2 1.73997
7 *938:D *65:1 1.4
*END

*D_NET *66 0.00174133

*CONN
*I *935:D I *C 86.855 10.875 *L 0.00289 *D SDFFRHQX4
*P *66 I *C 89.66 0 *L 0

*CAP
1 *66:1 0.000527628
2 *66:2 0.000527628
3 *66:3 0.000182429
4 *66:4 0.000182429
5 *66:5 0.00015465
6 *66:6 0.00016061
7 *66 5.96013e-06

*RES
1 *66:6 *66 0.0407135
2 *66:5 *66:6 1.05641
3 *66:4 *66:5 1.4
4 *66:3 *66:4 1.24283
5 *66:2 *66:3 1.4
6 *66:1 *66:2 3.60422
7 *935:D *66:1 1.4
*END

*D_NET *67 0.00243012

*CONN
*I *934:D I *C 79.895 12.905 *L 0.00289 *D SDFFRHQX4
*P *67 I *C 86.21 0 *L 0

*CAP
1 *67:1 0.000673181
2 *67:2 0.000673181
3 *67:3 0.000401344
4 *67:4 0.000401344
5 *67:5 0.000136456
6 *67:6 0.000140534
7 *67 4.07798e-06

*RES
1 *67:6 *67 0.0278566
2 *67:5 *67:6 0.932126
3 *67:4 *67:5 1.4
4 *67:3 *67:4 2.73423
5 *67:2 *67:3 1.4
6 *67:1 *67:2 4.59849
7 *934:D *67:1 1.4
*END

*D_NET *68 0.0011364

*CONN
*I *896:D I *C 7.395 33.785 *L 0.00289 *D SDFFRHQX4
*P *68 I *C 0 33.66 *L 0

*CAP
1 *68:2 0.000558756
2 *68:3 0.000568201
3 *68 9.44483e-06

*RES
1 *68:3 *68 0.0535703
2 *68:2 *68:3 3.16922
3 *68:1 *68:2 1.4
4 *896:D *68:1 1.4
*END

*D_NET *69 0.00231074

*CONN
*I *931:D I *C 13.775 31.755 *L 0.00289 *D SDFFRHQX4
*P *69 I *C 0 30.295 *L 0

*CAP
1 *69:1 6.82771e-05
2 *69:2 6.82771e-05
3 *69:3 0.00102986
4 *69:4 0.00102986
5 *69:5 4.55181e-05
6 *69:6 4.55181e-05
7 *69:7 1.0956e-05
8 *69:8 1.17116e-05
9 *69 7.55586e-07

*RES
1 *69:8 *69 0.00428562
2 *69:7 *69:8 0.0621415
3 *69:6 *69:7 1.4
4 *69:5 *69:6 0.248577
5 *69:4 *69:5 1.4
6 *69:3 *69:4 5.8413
7 *69:2 *69:3 1.4
8 *69:1 *69:2 0.372866
9 *931:D *69:1 1.4
*END

*D_NET *70 0.00140649

*CONN
*I *932:D I *C 7.395 28.565 *L 0.00289 *D SDFFRHQX4
*P *70 I *C 0 26.93 *L 0

*CAP
1 *70:1 2.2759e-05
2 *70:2 2.2759e-05
3 *70:3 0.000416328
4 *70:4 0.000416328
5 *70:5 0.000113795
6 *70:6 0.000113795
7 *70:7 0.000142428
8 *70:8 0.000150362
9 *70 7.93366e-06

*RES
1 *70:8 *70 0.044999
2 *70:7 *70:8 0.80784
3 *70:6 *70:7 1.4
4 *70:5 *70:6 0.621444
5 *70:4 *70:5 1.4
6 *70:3 *70:4 2.36138
7 *70:2 *70:3 1.4
8 *70:1 *70:2 0.124289
9 *932:D *70:1 1.4
*END

*D_NET *71 0.00263192

*CONN
*I *916:D I *C 14.645 26.535 *L 0.00289 *D SDFFRHQX4
*P *71 I *C 0 23.56 *L 0

*CAP
1 *71:2 0.00098604
2 *71:3 0.00098604
3 *71:4 0.000218145
4 *71:5 0.000218145
5 *71:6 0.000106754
6 *71:7 0.000111773
7 *71 5.01976e-06

*RES
1 *71:7 *71 0.0321436
2 *71:6 *71:7 0.683588
3 *71:5 *71:6 1.4
4 *71:4 *71:5 1.24288
5 *71:3 *71:4 1.4
6 *71:2 *71:3 5.59274
7 *71:1 *71:2 1.4
8 *916:D *71:1 1.4
*END

*D_NET *72 0.00137358

*CONN
*P *72 O *C 0 94.25 *L 0
*I *885:Y O *C 5.365 88.595 *L 0 *D CLKINVX8

*CAP
1 *72 8.97896e-06
2 *72:1 1.79579e-05
3 *72:2 8.97896e-06
4 *72:3 0.000236622
5 *72:4 0.000236622
6 *72:5 0.0003412
7 *72:6 0.0003412
8 *72:7 9.10084e-05
9 *72:8 9.10084e-05

*RES
1 *72:9 *885:Y 1.4
2 *72:8 *72:9 1.4
3 *72:7 *72:8 0.621417
4 *72:6 *72:7 1.4
5 *72:5 *72:6 2.36139
6 *72:4 *72:5 1.4
7 *72:3 *72:4 1.61568
8 *72:2 *72:3 1.4
9 *72:1 *72:2 0.0621418
10 *72 *72:1 0.0621418
*END

*D_NET *73 0.00124362

*CONN
*P *73 O *C 3.33 94.25 *L 0
*I *891:Y O *C 5.655 86.565 *L 0 *D CLKINVX8

*CAP
1 *73 3.09619e-07
2 *73:1 9.28858e-06
3 *73:2 8.97896e-06
4 *73:3 3.64034e-05
5 *73:4 3.64034e-05
6 *73:5 0.000466906
7 *73:6 0.000466906
8 *73:7 0.00010921
9 *73:8 0.00010921

*RES
1 *73:9 *891:Y 1.4
2 *73:8 *73:9 1.4
3 *73:7 *73:8 0.7457
4 *73:6 *73:7 1.4
5 *73:5 *73:6 3.23137
6 *73:4 *73:5 1.4
7 *73:3 *73:4 0.248567
8 *73:2 *73:3 1.4
9 *73:1 *73:2 0.0621418
10 *73 *73:1 0.00214282
*END

*D_NET *74 0.00144173

*CONN
*P *74 O *C 6.66 94.25 *L 0
*I *883:Y O *C 10.295 86.565 *L 0 *D CLKINVX8

*CAP
1 *74 8.35972e-06
2 *74:1 5.32545e-05
3 *74:2 4.48948e-05
4 *74:3 0.000236622
5 *74:4 0.000236622
6 *74:5 0.00043099
7 *74:6 0.00043099

*RES
1 *74:6 *883:Y 1.4
2 *74:5 *74:6 2.98281
3 *74:4 *74:5 1.4
4 *74:3 *74:4 1.61568
5 *74:2 *74:3 1.4
6 *74:1 *74:2 0.310709
7 *74 *74:1 0.0578562
*END

*D_NET *75 0.00667573

*CONN
*P *75 O *C 9.99 94.25 *L 0
*I *889:SI I *C 50.025 88.885 *L 0.00271 *D SDFFRHQX8
*I *856:Q O *C 42.775 86.275 *L 0 *D SDFFRHQX8

*CAP
1 *75 9.28858e-07
2 *75:1 9.90781e-06
3 *75:2 8.97896e-06
4 *75:3 0.00208223
5 *75:4 0.00208223
6 *75:5 0.000377608
7 *75:6 0.000377608
8 *75:7 0.000148599
9 *75:8 0.000679312
10 *75:9 0.000530712
11 *75:10 0.000188804
12 *75:12 0.000188804

*RES
1 *75:12 *856:Q 1.4
2 *75:11 *889:SI 1.4
3 *75:10 *75:12 1.11855
4 *75:9 *75:11 1.4
5 *75:8 *75:10 1.4
6 *75:8 *75:9 3.10708
7 *75:7 *75:8 0.869981
8 *75:6 *75:7 1.4
9 *75:5 *75:6 2.2371
10 *75:4 *75:5 1.4
11 *75:3 *75:4 13.174
12 *75:2 *75:3 1.4
13 *75:1 *75:2 0.0621418
14 *75 *75:1 0.00642846
*END

*D_NET *76 0.00204903

*CONN
*P *76 O *C 13.32 94.25 *L 0
*I *893:Y O *C 12.905 78.155 *L 0 *D CLKINVX8

*CAP
1 *76 7.74048e-06
2 *76:1 1.67194e-05
3 *76:2 8.97896e-06
4 *76:3 1.82017e-05
5 *76:4 1.82017e-05
6 *76:5 0.000989596
7 *76:6 0.000989596

*RES
1 *76:6 *893:Y 1.4
2 *76:5 *76:6 6.8356
3 *76:4 *76:5 1.4
4 *76:3 *76:4 0.124283
5 *76:2 *76:3 1.4
6 *76:1 *76:2 0.0621418
7 *76 *76:1 0.0535705
*END

*D_NET *77 0.0049129

*CONN
*I *903:SI I *C 51.185 68.005 *L 0.00271 *D SDFFRHQX8
*P *77 O *C 49.95 94.25 *L 0
*I *857:Q O *C 45.675 70.615 *L 0 *D SDFFRHQX8

*CAP
1 *77:1 0.000143304
2 *77:2 0.000143304
3 *77:3 9.45981e-05
4 *77:4 9.45981e-05
5 *77:5 7.16519e-05
6 *77:6 0.00185838
7 *77:7 0.00179215
8 *77:8 0.000354743
9 *77 5.4254e-06
10 *77:10 0.000354743

*RES
1 *77:11 *857:Q 1.4
2 *77:10 *77:11 1.4
3 *77:8 *77:10 1.86424
4 *77:7 *77 0.0321422
5 *77:6 *77:8 1.4
6 *77:6 *77:7 10.1291
7 *77:5 *77:6 0.372848
8 *77:4 *77:5 1.4
9 *77:3 *77:4 0.497132
10 *77:2 *77:3 1.4
11 *77:1 *77:2 0.745696
12 *903:SI *77:1 1.4
*END

*D_NET *78 0.00552329

*CONN
*P *78 O *C 53.28 94.25 *L 0
*I *858:Q O *C 57.565 65.395 *L 0 *D SDFFRHQX8
*I *857:SI I *C 58.435 70.615 *L 0.00271 *D SDFFRHQX8

*CAP
1 *78 4.70875e-06
2 *78:1 1.52129e-05
3 *78:2 1.05041e-05
4 *78:3 8.53813e-05
5 *78:4 8.53813e-05
6 *78:5 0.00170459
7 *78:6 0.00170459
8 *78:7 0.000422716
9 *78:8 0.000422716
10 *78:9 6.67309e-05
11 *78:10 0.000467116
12 *78:11 6.6631e-05
13 *78:12 0.000400385
14 *78:13 6.6631e-05

*RES
1 *78:15 *857:SI 1.4
2 *78:13 *78:15 1.4
3 *78:12 *858:Q 1.4
4 *78:11 *78:13 0.372849
5 *78:10 *78:12 2.23709
6 *78:10 *78:11 1.4
7 *78:9 *78:10 0.372848
8 *78:8 *78:9 1.4
9 *78:7 *78:8 2.36138
10 *78:6 *78:7 1.4
11 *78:5 *78:6 9.69407
12 *78:4 *78:5 1.4
13 *78:3 *78:4 0.497132
14 *78:2 *78:3 1.4
15 *78:1 *78:2 0.0621444
16 *78 *78:1 0.0278578
*END

*D_NET *79 0.00447886

*CONN
*P *79 O *C 69.93 94.25 *L 0
*I *861:Y O *C 56.695 78.155 *L 0 *D CLKINVX8

*CAP
1 *79 7.60645e-06
2 *79:1 1.81106e-05
3 *79:2 1.05041e-05
4 *79:3 2.1362e-05
5 *79:4 2.1362e-05
6 *79:5 0.00115607
7 *79:6 0.00115607
8 *79:7 0.00104389
9 *79:8 0.00104389

*RES
1 *79:9 *861:Y 1.4
2 *79:8 *79:9 1.4
3 *79:7 *79:8 5.8413
4 *79:6 *79:7 1.4
5 *79:5 *79:6 6.83588
6 *79:4 *79:5 1.4
7 *79:3 *79:4 0.124283
8 *79:2 *79:3 1.4
9 *79:1 *79:2 0.0621444
10 *79 *79:1 0.0450011
*END

*D_NET *80 0.00382258

*CONN
*P *80 O *C 73.26 94.25 *L 0
*I *863:Y O *C 68.585 72.935 *L 0 *D CLKINVX8

*CAP
1 *80 2.53548e-06
2 *80:1 3.40479e-05
3 *80:2 3.15124e-05
4 *80:3 0.000341792
5 *80:4 0.000341792
6 *80:5 0.00153545
7 *80:6 0.00153545

*RES
1 *80:6 *863:Y 1.4
2 *80:5 *80:6 8.94868
3 *80:4 *80:5 1.4
4 *80:3 *80:4 1.98853
5 *80:2 *80:3 1.4
6 *80:1 *80:2 0.186433
7 *80 *80:1 0.0150004
*END

*D_NET *81 0.00399385

*CONN
*P *81 O *C 76.59 94.25 *L 0
*I *859:Y O *C 68.005 76.125 *L 0 *D CLKINVX8

*CAP
1 *81 8.33087e-06
2 *81:1 0.00133061
3 *81:2 0.00132228
4 *81:3 0.00066631
5 *81:4 0.00066631

*RES
1 *81:5 *859:Y 1.4
2 *81:4 *81:5 1.4
3 *81:3 *81:4 3.72849
4 *81:2 *81:3 1.4
5 *81:1 *81:2 7.768
6 *81 *81:1 0.0492869
*END

*D_NET *82 0.00411185

*CONN
*P *82 O *C 79.92 94.25 *L 0
*I *878:Y O *C 61.915 81.345 *L 0 *D CLKINVX8

*CAP
1 *82 1.46192e-06
2 *82:1 0.000756104
3 *82:2 0.000754642
4 *82:3 0.00129982
5 *82:4 0.00129982

*RES
1 *82:5 *878:Y 1.4
2 *82:4 *82:5 1.4
3 *82:3 *82:4 7.70555
4 *82:2 *82:3 1.4
5 *82:1 *82:2 5.53079
6 *82 *82:1 0.0107144
*END

*D_NET *83 0.00516049

*CONN
*P *83 O *C 89.91 94.25 *L 0
*I *868:Q O *C 76.705 73.225 *L 0 *D SDFFRHQX8
*I *869:SI I *C 78.155 68.005 *L 0.00271 *D SDFFRHQX8

*CAP
1 *83 7.89436e-06
2 *83:1 0.00122452
3 *83:2 0.00121663
4 *83:3 0.000791473
5 *83:4 0.000791473
6 *83:5 5.87431e-05
7 *83:6 0.000411202
8 *83:7 0.00013205
9 *83:8 0.000352459
10 *83:9 0.00013205
11 *83:10 2.09986e-05
12 *83:12 2.09986e-05

*RES
1 *83:14 *869:SI 1.4
2 *83:12 *83:14 1.4
3 *83:11 *868:Q 1.4
4 *83:10 *83:12 0.124283
5 *83:9 *83:11 1.4
6 *83:8 *83:10 1.4
7 *83:7 *83:9 0.745698
8 *83:6 *83:8 2.2372
9 *83:6 *83:7 1.4
10 *83:5 *83:6 0.372866
11 *83:4 *83:5 1.4
12 *83:3 *83:4 4.97131
13 *83:2 *83:3 1.4
14 *83:1 *83:2 8.638
15 *83 *83:1 0.057858
*END

*D_NET *84 0.00543225

*CONN
*P *84 O *C 93.24 94.25 *L 0
*I *651:SI I *C 77.575 70.615 *L 0.00276 *D SDFFRHQX1
*I *869:Q O *C 90.915 68.005 *L 0 *D SDFFRHQX8

*CAP
1 *84 2.92384e-07
2 *84:1 2.57298e-05
3 *84:2 2.54374e-05
4 *84:3 0.000151963
5 *84:4 0.000151963
6 *84:5 0.00142616
7 *84:6 0.00142616
8 *84:7 1.97868e-05
9 *84:8 0.000896465
10 *84:9 0.000176229
11 *84:10 0.000876679
12 *84:11 0.000176229
13 *84:13 3.95736e-05
14 *84:15 3.95736e-05

*RES
1 *84:16 *869:Q 1.4
2 *84:15 *84:16 1.4
3 *84:13 *84:15 0.248565
4 *84:12 *651:SI 1.4
5 *84:11 *84:13 1.4
6 *84:10 *84:12 1.4
7 *84:9 *84:11 1.1186
8 *84:8 *84:10 5.46844
9 *84:8 *84:9 1.4
10 *84:7 *84:8 0.124283
11 *84:6 *84:7 1.4
12 *84:5 *84:6 9.94303
13 *84:4 *84:5 1.4
14 *84:3 *84:4 1.11854
15 *84:2 *84:3 1.4
16 *84:1 *84:2 0.186431
17 *84 *84:1 0.00214289
*END

*D_NET *85 0.0177867

*CONN
*P *85 O *C 0 94.25 *L 0
*I *664:A0 I *C 34.075 15.805 *L 0.00267 *D OAI211X1
*I *949:Q O *C 24.795 5.655 *L 0 *D SDFFRHQX4

*CAP
1 *85 9.10084e-06
2 *85:1 1.82017e-05
3 *85:2 9.10084e-06
4 *85:3 1.79579e-05
5 *85:4 1.79579e-05
6 *85:5 0.00140153
7 *85:6 0.00140153
8 *85:7 0.00573771
9 *85:8 0.00573771
10 *85:9 1.94098e-05
11 *85:10 0.000824425
12 *85:11 0.000805015
13 *85:12 0.000757675
14 *85:14 0.000757675
15 *85:16 0.000135868
16 *85:17 0.000135868

*RES
1 *85:18 *949:Q 1.4
2 *85:17 *85:18 1.4
3 *85:16 *85:17 0.870021
4 *85:14 *85:16 1.4
5 *85:13 *664:A0 1.4
6 *85:12 *85:14 4.35008
7 *85:11 *85:13 1.4
8 *85:10 *85:12 1.4
9 *85:10 *85:11 4.84725
10 *85:9 *85:10 0.124289
11 *85:8 *85:9 1.4
12 *85:7 *85:8 33.4328
13 *85:6 *85:7 1.4
14 *85:5 *85:6 9.56982
15 *85:4 *85:5 1.4
16 *85:3 *85:4 0.124284
17 *85:2 *85:3 1.4
18 *85:1 *85:2 0.0621417
19 *85 *85:1 0.0621417
*END

*D_NET *86 0.0107606

*CONN
*P *86 O *C 96.57 94.25 *L 0
*I *903:Q O *C 63.945 68.005 *L 0 *D SDFFRHQX8
*P *522 O *C 46.62 94.25 *L 0

*CAP
1 *86 8.47913e-06
2 *86:1 1.69583e-05
3 *86:2 8.47913e-06
4 *86:3 0.00211272
5 *86:4 0.00211272
6 *86:5 2.10083e-05
7 *86:6 0.0019346
8 *86:7 0.00127912
9 *86:8 0.00191359
10 *86:9 0.00127912
11 *86:11 3.14673e-05
12 *86:12 3.68927e-05
13 *522 5.4254e-06

*RES
1 *86:12 *522 0.0321422
2 *86:11 *86:12 0.186425
3 *86:9 *86:11 1.4
4 *86:8 *903:Q 1.4
5 *86:7 *86:9 7.45698
6 *86:6 *86:8 11.0615
7 *86:6 *86:7 1.4
8 *86:5 *86:6 0.124289
9 *86:4 *86:5 1.4
10 *86:3 *86:4 13.9197
11 *86:2 *86:3 1.4
12 *86:1 *86:2 0.0621438
13 *86 *86:1 0.0621438
*END

*D_NET *87 0.00281347

*CONN
*P *87 O *C 0 90.88 *L 0
*I *904:SI I *C 14.065 86.275 *L 0.00271 *D SDFFRHQX8
*I *866:Q O *C 4.785 83.665 *L 0 *D SDFFRHQX8

*CAP
1 *87 2.19676e-06
2 *87:1 0.000266121
3 *87:2 0.000263924
4 *87:3 0.000287327
5 *87:4 0.000287327
6 *87:5 0.00010921
7 *87:6 0.000618857
8 *87:7 0.000509647
9 *87:8 0.000161621
10 *87:10 0.000161621
11 *87:12 7.28068e-05
12 *87:13 7.28068e-05

*RES
1 *87:14 *866:Q 1.4
2 *87:13 *87:14 1.4
3 *87:12 *87:13 0.497134
4 *87:10 *87:12 1.4
5 *87:9 *904:SI 1.4
6 *87:8 *87:10 1.11855
7 *87:7 *87:9 1.4
8 *87:6 *87:8 1.4
9 *87:6 *87:7 3.47994
10 *87:5 *87:6 0.7457
11 *87:4 *87:5 1.4
12 *87:3 *87:4 1.98854
13 *87:2 *87:3 1.4
14 *87:1 *87:2 1.80211
15 *87 *87:1 0.0149997
*END

*D_NET *88 0.00314821

*CONN
*P *88 O *C 0 87.515 *L 0
*I *866:SI I *C 17.545 83.665 *L 0.00271 *D SDFFRHQX8
*I *873:Q O *C 18.705 81.055 *L 0 *D SDFFRHQX8

*CAP
1 *88 5.02116e-06
2 *88:1 0.000250744
3 *88:2 0.000245723
4 *88:3 0.000233453
5 *88:4 0.000233453
6 *88:5 0.000855479
7 *88:6 0.000928286
8 *88:7 7.28068e-05
9 *88:9 0.000161621
10 *88:11 0.000161621

*RES
1 *88:11 *873:Q 1.4
2 *88:9 *88:11 1.11855
3 *88:8 *866:SI 1.4
4 *88:7 *88:9 1.4
5 *88:6 *88:8 1.4
6 *88:6 *88:7 0.497134
7 *88:5 *88:6 5.84132
8 *88:4 *88:5 1.4
9 *88:3 *88:4 1.61569
10 *88:2 *88:3 1.4
11 *88:1 *88:2 1.67783
12 *88 *88:1 0.0342851
*END

*D_NET *89 0.0022595

*CONN
*P *89 O *C 0 84.15 *L 0
*I *873:SI I *C 5.945 81.055 *L 0.00271 *D SDFFRHQX8
*I *874:Q O *C 4.205 75.835 *L 0 *D SDFFRHQX8

*CAP
1 *89 5.96262e-06
2 *89:1 0.000106072
3 *89:2 0.000100109
4 *89:3 0.000161621
5 *89:4 0.000161621
6 *89:5 0.000273025
7 *89:6 0.000291227
8 *89:7 1.82017e-05
9 *89:8 3.59158e-05
10 *89:9 0.000391642
11 *89:10 3.59158e-05
12 *89:11 0.000391642
13 *89:13 0.000143271
14 *89:14 0.000143271

*RES
1 *89:15 *874:Q 1.4
2 *89:14 *89:15 1.4
3 *89:13 *89:14 0.869982
4 *89:11 *89:13 1.4
5 *89:10 *873:SI 1.4
6 *89:9 *89:11 2.48566
7 *89:8 *89:10 0.248567
8 *89:7 *89:9 1.4
9 *89:6 *89:8 1.4
10 *89:6 *89:7 0.124283
11 *89:5 *89:6 1.86425
12 *89:4 *89:5 1.4
13 *89:3 *89:4 1.11855
14 *89:2 *89:3 1.4
15 *89:1 *89:2 0.683559
16 *89 *89:1 0.0407135
*END

*D_NET *90 0.00355809

*CONN
*P *90 O *C 0 80.785 *L 0
*I *874:SI I *C 16.965 75.835 *L 0.00271 *D SDFFRHQX8
*I *875:Q O *C 17.835 73.225 *L 0 *D SDFFRHQX8

*CAP
1 *90 1.25529e-06
2 *90:1 0.000119566
3 *90:2 0.000118311
4 *90:3 0.000294209
5 *90:4 0.000294209
6 *90:5 0.0010643
7 *90:6 0.0010643
8 *90:7 4.3559e-05
9 *90:8 0.000217795
10 *90:10 0.000174236
11 *90:11 6.14017e-05
12 *90:12 6.14017e-05
13 *90:13 2.17795e-05
14 *90:14 2.17795e-05

*RES
1 *90:14 *875:Q 1.4
2 *90:13 *90:14 0.124283
3 *90:12 *90:13 1.4
4 *90:11 *90:12 0.372849
5 *90:10 *90:11 1.4
6 *90:8 *90:10 0.994261
7 *90:8 *874:SI 1.4
8 *90:7 *90:8 0.248565
9 *90:6 *90:7 1.4
10 *90:5 *90:6 6.46272
11 *90:4 *90:5 1.4
12 *90:3 *90:4 1.86425
13 *90:2 *90:3 1.4
14 *90:1 *90:2 0.807842
15 *90 *90:1 0.00857127
*END

*D_NET *91 0.00173726

*CONN
*P *91 O *C 0 77.42 *L 0
*I *875:SI I *C 5.075 73.225 *L 0.00271 *D SDFFRHQX8
*I *867:Q O *C 5.075 70.615 *L 0 *D SDFFRHQX8

*CAP
1 *91 9.52785e-06
2 *91:1 0.000122098
3 *91:2 0.00011257
4 *91:3 0.000304913
5 *91:4 0.000304913
6 *91:5 0.000245607
7 *91:6 0.000245607
8 *91:7 0.000196015
9 *91:9 0.000196015

*RES
1 *91:9 *867:Q 1.4
2 *91:7 *91:9 1.11854
3 *91:7 *875:SI 1.4
4 *91:6 *91:7 1.4
5 *91:5 *91:6 1.4914
6 *91:4 *91:5 1.4
7 *91:3 *91:4 1.73996
8 *91:2 *91:3 1.4
9 *91:1 *91:2 0.683557
10 *91 *91:1 0.0578559
*END

*D_NET *92 0.00356136

*CONN
*P *92 O *C 0 74.05 *L 0
*I *867:SI I *C 17.835 70.615 *L 0.00271 *D SDFFRHQX8
*I *865:Q O *C 18.705 68.005 *L 0 *D SDFFRHQX8

*CAP
1 *92 3.17595e-06
2 *92:1 0.000136213
3 *92:2 0.000133037
4 *92:3 0.000261354
5 *92:4 0.000261354
6 *92:5 0.0011257
7 *92:6 0.0011871
8 *92:7 6.14017e-05
9 *92:9 0.000196015
10 *92:11 0.000196015

*RES
1 *92:11 *865:Q 1.4
2 *92:9 *92:11 1.11854
3 *92:8 *867:SI 1.4
4 *92:7 *92:9 1.4
5 *92:6 *92:8 1.4
6 *92:6 *92:7 0.372849
7 *92:5 *92:6 6.83557
8 *92:4 *92:5 1.4
9 *92:3 *92:4 1.49139
10 *92:2 *92:3 1.4
11 *92:1 *92:2 0.80784
12 *92 *92:1 0.0192853
*END

*D_NET *93 0.00192489

*CONN
*P *93 O *C 0 70.685 *L 0
*I *865:SI I *C 5.945 68.005 *L 0.00271 *D SDFFRHQX8
*I *871:Q O *C 5.075 65.395 *L 0 *D SDFFRHQX8

*CAP
1 *93 4.94036e-06
2 *93:1 0.00011751
3 *93:2 0.00011257
4 *93:3 0.000152456
5 *93:4 0.000152456
6 *93:5 0.000307008
7 *93:6 0.000327476
8 *93:7 2.04672e-05
9 *93:8 4.3559e-05
10 *93:9 0.000239574
11 *93:10 4.3559e-05
12 *93:11 0.000239574
13 *93:13 8.18689e-05
14 *93:14 8.18689e-05

*RES
1 *93:15 *871:Q 1.4
2 *93:14 *93:15 1.4
3 *93:13 *93:14 0.497132
4 *93:11 *93:13 1.4
5 *93:10 *865:SI 1.4
6 *93:9 *93:11 1.36711
7 *93:8 *93:10 0.248565
8 *93:7 *93:9 1.4
9 *93:6 *93:8 1.4
10 *93:6 *93:7 0.124283
11 *93:5 *93:6 1.86425
12 *93:4 *93:5 1.4
13 *93:3 *93:4 0.869979
14 *93:2 *93:3 1.4
15 *93:1 *93:2 0.683557
16 *93 *93:1 0.0299994
*END

*D_NET *94 0.00374407

*CONN
*P *94 O *C 0 67.32 *L 0
*I *871:SI I *C 17.835 65.395 *L 0.00271 *D SDFFRHQX8
*I *872:Q O *C 5.075 60.175 *L 0 *D SDFFRHQX8

*CAP
1 *94 7.41055e-06
2 *94:1 0.000406522
3 *94:2 0.000399111
4 *94:3 0.000152456
5 *94:4 0.000152456
6 *94:5 2.04672e-05
7 *94:6 0.000859624
8 *94:7 0.000839156
9 *94:8 0.000392031
10 *94:10 0.000392031
11 *94:12 6.14017e-05
12 *94:13 6.14017e-05

*RES
1 *94:14 *872:Q 1.4
2 *94:13 *94:14 1.4
3 *94:12 *94:13 0.372849
4 *94:10 *94:12 1.4
5 *94:9 *871:SI 1.4
6 *94:8 *94:10 2.23709
7 *94:7 *94:9 1.4
8 *94:6 *94:8 1.4
9 *94:6 *94:7 5.09561
10 *94:5 *94:6 0.124283
11 *94:4 *94:5 1.4
12 *94:3 *94:4 0.869979
13 *94:2 *94:3 1.4
14 *94:1 *94:2 2.42352
15 *94 *94:1 0.0449991
*END

*D_NET *95 0.0046436

*CONN
*P *95 O *C 39.96 94.25 *L 0
*I *906:Q O *C 48.285 81.055 *L 0 *D SDFFRHQX8
*I *895:SI I *C 58.145 80.765 *L 0.00168 *D SDFFRX1

*CAP
1 *95 6.14879e-06
2 *95:1 5.85943e-05
3 *95:2 5.24455e-05
4 *95:3 0.000530712
5 *95:4 0.000530712
6 *95:5 0.000818151
7 *95:6 0.000818151
8 *95:7 8.4914e-05
9 *95:8 8.4914e-05
10 *95:9 8.39129e-05
11 *95:10 8.39129e-05
12 *95:11 0.000724506
13 *95:13 0.000724506
14 *95:14 2.10083e-05
15 *95:15 2.10083e-05

*RES
1 *95:15 *895:SI 1.4
2 *95:14 *95:15 0.124289
3 *95:13 *95:14 1.4
4 *95:11 *95:13 4.22562
5 *95:10 *906:Q 1.4
6 *95:10 *95:11 1.4
7 *95:9 *95:10 0.497132
8 *95:8 *95:9 1.4
9 *95:7 *95:8 0.497132
10 *95:6 *95:7 1.4
11 *95:5 *95:6 4.84704
12 *95:4 *95:5 1.4
13 *95:3 *95:4 3.10708
14 *95:2 *95:3 1.4
15 *95:1 *95:2 0.310708
16 *95 *95:1 0.0364278
*END

*D_NET *96 0.00229909

*CONN
*P *96 O *C 36.63 94.25 *L 0
*I *906:SI I *C 35.525 81.055 *L 0.00271 *D SDFFRHQX8
*I *907:Q O *C 34.075 83.665 *L 0 *D SDFFRHQX8

*CAP
1 *96 3.97863e-06
2 *96:1 0.000769684
3 *96:2 0.000765705
4 *96:3 8.4914e-05
5 *96:4 0.000191056
6 *96:5 0.000188804
7 *96:6 0.000106142
8 *96:7 0.000188804

*RES
1 *96:8 *907:Q 1.4
2 *96:7 *906:SI 1.4
3 *96:6 *96:8 1.4
4 *96:5 *96:7 1.11855
5 *96:4 *96:6 0.621415
6 *96:4 *96:5 1.4
7 *96:3 *96:4 0.497132
8 *96:2 *96:3 1.4
9 *96:1 *96:2 4.53633
10 *96 *96:1 0.0235709
*END

*D_NET *97 0.00354063

*CONN
*P *97 O *C 33.3 94.25 *L 0
*I *899:Q O *C 42.485 86.275 *L 0 *D SDFFRHQX8
*I *907:SI I *C 46.835 83.665 *L 0.00271 *D SDFFRHQX8

*CAP
1 *97 6.87218e-06
2 *97:1 0.00049986
3 *97:2 0.000492988
4 *97:3 0.000679312
5 *97:4 0.000679312
6 *97:5 8.39129e-05
7 *97:6 0.000272717
8 *97:8 0.000188804
9 *97:9 0.000318427
10 *97:10 0.000318427

*RES
1 *97:11 *907:SI 1.4
2 *97:10 *97:11 1.4
3 *97:9 *97:10 1.86425
4 *97:8 *97:9 1.4
5 *97:6 *97:8 1.11855
6 *97:6 *899:Q 1.4
7 *97:5 *97:6 0.497132
8 *97:4 *97:5 1.4
9 *97:3 *97:4 3.97706
10 *97:2 *97:3 1.4
11 *97:1 *97:2 2.92065
12 *97 *97:1 0.0407134
*END

*D_NET *98 0.00133014

*CONN
*P *98 O *C 29.97 94.25 *L 0
*I *899:SI I *C 29.725 86.275 *L 0.00271 *D SDFFRHQX8
*I *900:Q O *C 28.855 88.885 *L 0 *D SDFFRHQX8

*CAP
1 *98 3.25524e-06
2 *98:1 1.37444e-05
3 *98:2 1.04891e-05
4 *98:3 2.12285e-05
5 *98:4 2.12285e-05
6 *98:5 0.000377608
7 *98:6 0.000566412
8 *98:7 6.36855e-05
9 *98:8 0.000188804
10 *98:9 6.36855e-05

*RES
1 *98:11 *900:Q 1.4
2 *98:9 *98:11 1.4
3 *98:8 *899:SI 1.4
4 *98:7 *98:9 0.372849
5 *98:6 *98:8 1.11855
6 *98:6 *98:7 1.4
7 *98:5 *98:6 2.2371
8 *98:4 *98:5 1.4
9 *98:3 *98:4 0.124283
10 *98:2 *98:3 1.4
11 *98:1 *98:2 0.0621415
12 *98 *98:1 0.0192853
*END

*D_NET *99 0.00421639

*CONN
*P *99 O *C 26.64 94.25 *L 0
*I *900:SI I *C 41.615 88.885 *L 0.00271 *D SDFFRHQX8
*I *902:Q O *C 34.365 81.055 *L 0 *D SDFFRHQX8

*CAP
1 *99 7.59556e-06
2 *99:1 3.90629e-05
3 *99:2 3.14673e-05
4 *99:3 0.000467027
5 *99:4 0.000467027
6 *99:5 0.000377608
7 *99:6 0.000377608
8 *99:7 0.000127371
9 *99:8 0.000636855
10 *99:9 0.000509484
11 *99:10 0.000545434
12 *99:11 2.09782e-05
13 *99:12 0.000545434
14 *99:13 2.09782e-05
15 *99:14 2.12285e-05
16 *99:16 2.12285e-05

*RES
1 *99:17 *902:Q 1.4
2 *99:16 *99:17 1.4
3 *99:14 *99:16 0.124283
4 *99:13 *900:SI 1.4
5 *99:12 *99:14 1.4
6 *99:11 *99:13 0.124283
7 *99:10 *99:12 3.23136
8 *99:9 *99:11 1.4
9 *99:8 *99:10 1.4
10 *99:8 *99:9 2.98279
11 *99:7 *99:8 0.745698
12 *99:6 *99:7 1.4
13 *99:5 *99:6 2.2371
14 *99:4 *99:5 1.4
15 *99:3 *99:4 2.73423
16 *99:2 *99:3 1.4
17 *99:1 *99:2 0.186425
18 *99 *99:1 0.044999
*END

*D_NET *100 0.00351601

*CONN
*P *100 O *C 23.31 94.25 *L 0
*I *902:SI I *C 21.605 81.055 *L 0.00271 *D SDFFRHQX8
*I *901:Q O *C 30.885 78.445 *L 0 *D SDFFRHQX8

*CAP
1 *100 2.16733e-06
2 *100:1 1.11463e-05
3 *100:2 8.97896e-06
4 *100:3 1.82017e-05
5 *100:4 1.82017e-05
6 *100:5 0.000754232
7 *100:6 0.000790148
8 *100:7 9.10084e-05
9 *100:8 3.59158e-05
10 *100:9 9.10084e-05
11 *100:10 0.000562616
12 *100:11 5.38737e-05
13 *100:12 0.000562616
14 *100:13 5.38737e-05
15 *100:14 0.000209782
16 *100:16 0.000209782
17 *100:17 2.12285e-05
18 *100:18 2.12285e-05

*RES
1 *100:19 *901:Q 1.4
2 *100:18 *100:19 1.4
3 *100:17 *100:18 0.124283
4 *100:16 *100:17 1.4
5 *100:14 *100:16 1.24283
6 *100:13 *902:SI 1.4
7 *100:12 *100:14 1.4
8 *100:11 *100:13 0.372851
9 *100:10 *100:12 3.47993
10 *100:9 *100:11 1.4
11 *100:8 *100:10 1.4
12 *100:7 *100:9 0.621417
13 *100:6 *100:8 0.248567
14 *100:6 *100:7 1.4
15 *100:5 *100:6 5.21991
16 *100:4 *100:5 1.4
17 *100:3 *100:4 0.124283
18 *100:2 *100:3 1.4
19 *100:1 *100:2 0.0621418
20 *100 *100:1 0.0149997
*END

*D_NET *101 0.00222599

*CONN
*P *101 O *C 19.98 94.25 *L 0
*I *898:Q O *C 18.705 83.665 *L 0 *D SDFFRHQX8
*I *901:SI I *C 18.125 78.445 *L 0.00271 *D SDFFRHQX8

*CAP
1 *101 7.12124e-06
2 *101:1 0.000680543
3 *101:2 0.000673422
4 *101:3 7.28068e-05
5 *101:4 0.00010921
6 *101:5 1.79579e-05
7 *101:6 3.64034e-05
8 *101:7 1.79579e-05
9 *101:8 0.000305285
10 *101:10 0.000305285

*RES
1 *101:10 *901:SI 1.4
2 *101:8 *101:10 2.11282
3 *101:7 *898:Q 1.4
4 *101:6 *101:8 1.4
5 *101:5 *101:7 0.124284
6 *101:4 *101:6 0.248567
7 *101:4 *101:5 1.4
8 *101:3 *101:4 0.497134
9 *101:2 *101:3 1.4
10 *101:1 *101:2 4.66063
11 *101 *101:1 0.0492849
*END

*D_NET *102 0.00344603

*CONN
*I *898:SI I *C 31.465 83.665 *L 0.00271 *D SDFFRHQX8
*I *904:Q O *C 26.825 86.275 *L 0 *D SDFFRHQX8
*P *102 O *C 16.65 94.25 *L 0

*CAP
1 *102:2 2.12285e-05
2 *102:3 2.12285e-05
3 *102:4 0.000188804
4 *102:5 0.000188804
5 *102:6 0.000360884
6 *102:7 0.000360884
7 *102:8 8.39129e-05
8 *102:9 8.39129e-05
9 *102:11 0.000644626
10 *102:12 0.000644626
11 *102:13 0.000422011
12 *102:14 0.000423559
13 *102 1.5481e-06

*RES
1 *102:14 *102 0.0107141
2 *102:13 *102:14 2.92066
3 *102:12 *102:13 1.4
4 *102:11 *102:12 4.34992
5 *102:9 *102:11 1.4
6 *102:8 *904:Q 1.4
7 *102:8 *102:9 0.497132
8 *102:7 *102:8 1.4
9 *102:6 *102:7 2.11281
10 *102:5 *102:6 1.4
11 *102:4 *102:5 1.11855
12 *102:3 *102:4 1.4
13 *102:2 *102:3 0.124283
14 *102:1 *102:2 1.4
15 *898:SI *102:1 1.4
*END

*D_NET *103 0.00101743

*CONN
*P *103 O *C 0 63.955 *L 0
*I *894:Y O *C 5.655 62.495 *L 0 *D CLKINVX8

*CAP
1 *103 7.05766e-07
2 *103:1 1.09394e-05
3 *103:2 1.02336e-05
4 *103:3 6.53384e-05
5 *103:4 6.53384e-05
6 *103:5 0.000388877
7 *103:6 0.000388877
8 *103:7 4.3559e-05
9 *103:8 4.3559e-05

*RES
1 *103:8 *894:Y 1.4
2 *103:7 *103:8 0.248565
3 *103:6 *103:7 1.4
4 *103:5 *103:6 2.36138
5 *103:4 *103:5 1.4
6 *103:3 *103:4 0.372848
7 *103:2 *103:3 1.4
8 *103:1 *103:2 0.0621416
9 *103 *103:1 0.00428562
*END

*D_NET *104 0.00347296

*CONN
*P *104 O *C 0 60.59 *L 0
*I *884:Y O *C 5.655 78.155 *L 0 *D CLKINVX8

*CAP
1 *104 8.82208e-06
2 *104:1 0.000121392
3 *104:2 0.00011257
4 *104:3 0.00132855
5 *104:4 0.00132855
6 *104:5 0.000286541
7 *104:6 0.000286541

*RES
1 *104:7 *884:Y 1.4
2 *104:6 *104:7 1.4
3 *104:5 *104:6 1.73996
4 *104:4 *104:5 1.4
5 *104:3 *104:4 7.58124
6 *104:2 *104:3 1.4
7 *104:1 *104:2 0.683557
8 *104 *104:1 0.0535703
*END

*D_NET *105 0.00504605

*CONN
*P *105 O *C 0 57.22 *L 0
*I *879:Y O *C 31.465 60.465 *L 0 *D CLKINVX8

*CAP
1 *105 3.88172e-06
2 *105:1 0.000116451
3 *105:2 0.00011257
4 *105:3 0.000239574
5 *105:4 0.000239574
6 *105:5 0.002167
7 *105:6 0.002167

*RES
1 *105:7 *879:Y 1.4
2 *105:6 *105:7 1.4
3 *105:5 *105:6 12.8012
4 *105:4 *105:5 1.4
5 *105:3 *105:4 1.36711
6 *105:2 *105:3 1.4
7 *105:1 *105:2 0.683557
8 *105 *105:1 0.0235709
*END

*D_NET *106 0.000983551

*CONN
*P *106 O *C 0 53.855 *L 0
*I *862:Y O *C 5.365 55.245 *L 0 *D CLKINVX8

*CAP
1 *106 4.2346e-06
2 *106:1 1.44682e-05
3 *106:2 1.02336e-05
4 *106:3 4.3559e-05
5 *106:4 4.3559e-05
6 *106:5 0.00036841
7 *106:6 0.00036841
8 *106:7 6.53384e-05
9 *106:8 6.53384e-05

*RES
1 *106:8 *862:Y 1.4
2 *106:7 *106:8 0.372848
3 *106:6 *106:7 1.4
4 *106:5 *106:6 2.2371
5 *106:4 *106:5 1.4
6 *106:3 *106:4 0.248565
7 *106:2 *106:3 1.4
8 *106:1 *106:2 0.0621416
9 *106 *106:1 0.0257137
*END

*D_NET *107 0.000875335

*CONN
*P *107 O *C 0 50.49 *L 0
*I *864:Y O *C 5.075 50.025 *L 0 *D CLKINVX8

*CAP
1 *107 8.68924e-06
2 *107:1 1.96452e-05
3 *107:2 1.0956e-05
4 *107:3 2.2759e-05
5 *107:4 2.2759e-05
6 *107:5 0.000372504
7 *107:6 0.000372504
8 *107:7 2.2759e-05
9 *107:8 2.2759e-05

*RES
1 *107:8 *864:Y 1.4
2 *107:7 *107:8 0.124289
3 *107:6 *107:7 1.4
4 *107:5 *107:6 2.11281
5 *107:4 *107:5 1.4
6 *107:3 *107:4 0.124289
7 *107:2 *107:3 1.4
8 *107:1 *107:2 0.0621415
9 *107 *107:1 0.0492846
*END

*D_NET *108 0.00424596

*CONN
*P *108 O *C 0 47.125 *L 0
*I *860:Y O *C 25.085 50.025 *L 0 *D CLKINVX8

*CAP
1 *108 0.00189539
2 *108:1 0.00189539
3 *108:2 0.00022759
4 *108:3 0.00022759

*RES
1 *108:3 *860:Y 1.4
2 *108:2 *108:3 1.24289
3 *108:1 *108:2 1.4
4 *108 *108:1 10.7505
*END

*D_NET *109 0.000922547

*CONN
*P *109 O *C 0 43.76 *L 0
*I *890:Y O *C 4.785 44.805 *L 0 *D CLKINVX8

*CAP
1 *109 8.68924e-06
2 *109:1 1.96452e-05
3 *109:2 1.0956e-05
4 *109:3 4.55181e-05
5 *109:4 4.55181e-05
6 *109:5 0.000350592
7 *109:6 0.000350592
8 *109:7 4.55181e-05
9 *109:8 4.55181e-05

*RES
1 *109:8 *890:Y 1.4
2 *109:7 *109:8 0.248577
3 *109:6 *109:7 1.4
4 *109:5 *109:6 1.98853
5 *109:4 *109:5 1.4
6 *109:3 *109:4 0.248577
7 *109:2 *109:3 1.4
8 *109:1 *109:2 0.0621415
9 *109 *109:1 0.0492846
*END

*D_NET *110 0.000958815

*CONN
*P *110 O *C 0 40.39 *L 0
*I *892:Y O *C 5.075 41.615 *L 0 *D CLKINVX8

*CAP
1 *110 4.91131e-06
2 *110:1 0.000125427
3 *110:2 0.000120516
4 *110:3 9.10362e-05
5 *110:4 9.10362e-05
6 *110:5 0.000262944
7 *110:6 0.000262944

*RES
1 *110:7 *892:Y 1.4
2 *110:6 *110:7 1.4
3 *110:5 *110:6 1.4914
4 *110:4 *110:5 1.4
5 *110:3 *110:4 0.497155
6 *110:2 *110:3 1.4
7 *110:1 *110:2 0.683557
8 *110 *110:1 0.0278565
*END

*D_NET *111 0.00947784

*CONN
*P *111 O *C 43.29 94.25 *L 0
*I *858:SI I *C 70.325 65.395 *L 0.00271 *D SDFFRHQX8
*I *905:Q O *C 47.995 60.175 *L 0 *D SDFFRHQX8

*CAP
1 *111 4.70201e-06
2 *111:1 1.51911e-05
3 *111:2 1.04891e-05
4 *111:3 0.000191056
5 *111:4 0.000191056
6 *111:5 0.00220615
7 *111:6 0.00220615
8 *111:7 0.000165547
9 *111:8 0.00189661
10 *111:9 0.00173106
11 *111:10 0.000429911
12 *111:12 0.000429911

*RES
1 *111:12 *905:Q 1.4
2 *111:11 *858:SI 1.4
3 *111:10 *111:12 2.23709
4 *111:9 *111:11 1.4
5 *111:8 *111:10 1.4
6 *111:8 *111:9 9.56979
7 *111:7 *111:8 0.869981
8 *111:6 *111:7 1.4
9 *111:5 *111:6 12.304
10 *111:4 *111:5 1.4
11 *111:3 *111:4 1.11855
12 *111:2 *111:3 1.4
13 *111:1 *111:2 0.0621415
14 *111 *111:1 0.0278566
*END

*D_NET *112 0.0016448

*CONN
*P *112 O *C 86.58 94.25 *L 0
*I *881:Q O *C 90.335 86.275 *L 0 *D SDFFRHQX8
*I *956:SI I *C 90.335 83.955 *L 0.00268 *D SDFFRHQX4

*CAP
1 *112 8.77151e-07
2 *112:1 0.000450271
3 *112:2 0.000449394
4 *112:3 0.000219502
5 *112:4 0.000219502
6 *112:5 1.69583e-05
7 *112:6 0.000152624
8 *112:8 0.000135666

*RES
1 *112:8 *956:SI 1.4
2 *112:6 *112:8 0.9943
3 *112:6 *881:Q 1.4
4 *112:5 *112:6 0.124288
5 *112:4 *112:5 1.4
6 *112:3 *112:4 1.61567
7 *112:2 *112:3 1.4
8 *112:1 *112:2 3.29362
9 *112 *112:1 0.00642866
*END

*D_NET *113 0.0024338

*CONN
*P *113 O *C 83.25 94.25 *L 0
*I *880:Q O *C 77.865 81.055 *L 0 *D SDFFRHQX8
*I *881:SI I *C 77.575 86.275 *L 0.00271 *D SDFFRHQX8

*CAP
1 *113 7.30959e-06
2 *113:1 0.000405829
3 *113:2 0.000398519
4 *113:3 0.000327527
5 *113:4 0.000327527
6 *113:5 8.40331e-05
7 *113:6 0.000462182
8 *113:7 2.1362e-05
9 *113:8 0.000378149
10 *113:9 2.1362e-05

*RES
1 *113:11 *881:SI 1.4
2 *113:9 *113:11 1.4
3 *113:8 *880:Q 1.4
4 *113:7 *113:9 0.124283
5 *113:6 *113:8 2.2372
6 *113:6 *113:7 1.4
7 *113:5 *113:6 0.497155
8 *113:4 *113:5 1.4
9 *113:3 *113:4 2.36137
10 *113:2 *113:3 1.4
11 *113:1 *113:2 2.92076
12 *113 *113:1 0.0535722
*END

*D_NET *114 0.00213189

*CONN
*P *114 O *C 66.6 94.25 *L 0
*I *887:Q O *C 65.395 83.665 *L 0 *D SDFFRHQX8
*I *880:SI I *C 65.105 81.055 *L 0.00271 *D SDFFRHQX8

*CAP
1 *114 3.25991e-06
2 *114:1 1.3764e-05
3 *114:2 1.05041e-05
4 *114:3 8.5448e-05
5 *114:4 8.5448e-05
6 *114:5 0.000756298
7 *114:6 0.00086134
8 *114:8 0.000105041
9 *114:9 2.1362e-05
10 *114:10 2.1362e-05
11 *114:11 8.40331e-05
12 *114:12 8.40331e-05

*RES
1 *114:12 *880:SI 1.4
2 *114:11 *114:12 0.497155
3 *114:10 *114:11 1.4
4 *114:9 *114:10 0.124283
5 *114:8 *114:9 1.4
6 *114:6 *114:8 0.621444
7 *114:6 *887:Q 1.4
8 *114:5 *114:6 4.4744
9 *114:4 *114:5 1.4
10 *114:3 *114:4 0.497132
11 *114:2 *114:3 1.4
12 *114:1 *114:2 0.0621444
13 *114 *114:1 0.0192862
*END

*D_NET *115 0.00389719

*CONN
*P *115 O *C 63.27 94.25 *L 0
*I *886:Q O *C 70.615 86.275 *L 0 *D SDFFRHQX8
*I *887:SI I *C 78.155 83.665 *L 0.00271 *D SDFFRHQX8

*CAP
1 *115 6.88202e-06
2 *115:1 1.73862e-05
3 *115:2 1.05041e-05
4 *115:3 4.2724e-05
5 *115:4 4.2724e-05
6 *115:5 0.000483191
7 *115:6 0.000483191
8 *115:7 0.000576774
9 *115:8 0.000576774
10 *115:9 8.40331e-05
11 *115:10 0.000273108
12 *115:12 0.000189075
13 *115:13 0.000555412
14 *115:14 0.000555412

*RES
1 *115:15 *887:SI 1.4
2 *115:14 *115:15 1.4
3 *115:13 *115:14 3.23136
4 *115:12 *115:13 1.4
5 *115:10 *115:12 1.1186
6 *115:10 *886:Q 1.4
7 *115:9 *115:10 0.497155
8 *115:8 *115:9 1.4
9 *115:7 *115:8 3.35564
10 *115:6 *115:7 1.4
11 *115:5 *115:6 2.85864
12 *115:4 *115:5 1.4
13 *115:3 *115:4 0.248566
14 *115:2 *115:3 1.4
15 *115:1 *115:2 0.0621444
16 *115 *115:1 0.0407153
*END

*D_NET *116 0.00240171

*CONN
*I *886:SI I *C 57.855 86.275 *L 0.00271 *D SDFFRHQX8
*P *116 O *C 59.94 94.25 *L 0
*I *888:Q O *C 65.975 88.885 *L 0 *D SDFFRHQX8

*CAP
1 *116:1 2.10083e-05
2 *116:2 2.10083e-05
3 *116:3 8.5448e-05
4 *116:4 8.5448e-05
5 *116:5 0.000147058
6 *116:6 0.000147058
7 *116:7 6.4086e-05
8 *116:8 0.000512688
9 *116:9 0.000448602
10 *116:10 0.000409662
11 *116:11 2.10083e-05
12 *116:12 0.000413646
13 *116:13 2.10083e-05
14 *116 3.98433e-06

*RES
1 *116:13 *888:Q 1.4
2 *116:12 *116 0.023572
3 *116:11 *116:13 0.124289
4 *116:10 *116:12 2.42363
5 *116:9 *116:11 1.4
6 *116:8 *116:10 1.4
7 *116:8 *116:9 2.60994
8 *116:7 *116:8 0.372849
9 *116:6 *116:7 1.4
10 *116:5 *116:6 0.870021
11 *116:4 *116:5 1.4
12 *116:3 *116:4 0.497132
13 *116:2 *116:3 1.4
14 *116:1 *116:2 0.124289
15 *886:SI *116:1 1.4
*END

*D_NET *117 0.00402322

*CONN
*P *117 O *C 56.61 94.25 *L 0
*I *889:Q O *C 62.785 88.885 *L 0 *D SDFFRHQX8
*I *888:SI I *C 78.735 88.885 *L 0.00271 *D SDFFRHQX8

*CAP
1 *117 6.1576e-06
2 *117:1 0.000331786
3 *117:2 0.000325628
4 *117:3 0.000448602
5 *117:4 0.000448602
6 *117:5 6.30249e-05
7 *117:6 6.30249e-05
8 *117:7 0.00116819
9 *117:9 0.00116819

*RES
1 *117:10 *888:SI 1.4
2 *117:9 *117:10 1.4
3 *117:7 *117:9 6.83557
4 *117:6 *889:Q 1.4
5 *117:6 *117:7 1.4
6 *117:5 *117:6 0.372866
7 *117:4 *117:5 1.4
8 *117:3 *117:4 2.60994
9 *117:2 *117:3 1.4
10 *117:1 *117:2 1.92648
11 *117 *117:1 0.0364295
*END

*D_NET *118 0.000906974

*CONN
*I *870:SI I *C 16.095 39.005 *L 0.00168 *D SDFFRX1
*I *896:Q O *C 15.805 33.785 *L 0 *D SDFFRHQX4
*I *634:AN I *C 15.515 36.685 *L 0.0018 *D NAND4BXL

*CAP
1 *118:2 2.1912e-05
2 *118:3 2.1912e-05
3 *118:4 0.000182072
4 *118:5 0.000409663
5 *118:6 2.1912e-05
6 *118:7 0.00022759
7 *118:8 2.1912e-05

*RES
1 *118:10 *634:AN 1.4
2 *118:8 *118:10 1.4
3 *118:7 *896:Q 1.4
4 *118:6 *118:8 0.124283
5 *118:5 *118:7 1.24289
6 *118:5 *118:6 1.4
7 *118:4 *118:5 0.99431
8 *118:3 *118:4 1.4
9 *118:2 *118:3 0.124283
10 *118:1 *118:2 1.4
11 *870:SI *118:1 1.4
*END

*D_NET *119 0.00459299

*CONN
*I *634:D I *C 14.065 36.975 *L 0.00174 *D NAND4BXL
*I *931:Q O *C 5.365 31.755 *L 0 *D SDFFRHQX4
*I *965:SI I *C 5.655 16.095 *L 0.00268 *D SDFFRHQX4

*CAP
1 *119:2 8.7648e-05
2 *119:3 8.7648e-05
3 *119:4 0.000364145
4 *119:5 0.000364145
5 *119:6 0.000503976
6 *119:7 0.000503976
7 *119:8 4.55181e-05
8 *119:9 0.00123617
9 *119:10 6.5736e-05
10 *119:11 0.00119065
11 *119:12 6.5736e-05
12 *119:13 3.88195e-05
13 *119:15 3.88195e-05

*RES
1 *119:17 *965:SI 1.4
2 *119:15 *119:17 1.4
3 *119:14 *931:Q 1.4
4 *119:13 *119:15 0.248578
5 *119:12 *119:14 1.4
6 *119:11 *119:13 1.4
7 *119:10 *119:12 0.372849
8 *119:9 *119:11 6.71157
9 *119:9 *119:10 1.4
10 *119:8 *119:9 0.248577
11 *119:7 *119:8 1.4
12 *119:6 *119:7 2.85851
13 *119:5 *119:6 1.4
14 *119:4 *119:5 1.98862
15 *119:3 *119:4 1.4
16 *119:2 *119:3 0.497132
17 *119:1 *119:2 1.4
18 *634:D *119:1 1.4
*END

*D_NET *120 0.00211055

*CONN
*I *634:C I *C 14.355 36.975 *L 0.00163 *D NAND4BXL
*I *931:SI I *C 15.225 31.755 *L 0.00268 *D SDFFRHQX4
*I *932:Q O *C 15.805 28.565 *L 0 *D SDFFRHQX4

*CAP
1 *120:2 8.7648e-05
2 *120:3 8.7648e-05
3 *120:4 0.000386904
4 *120:5 0.000386904
5 *120:6 0.000153384
6 *120:7 0.000241032
7 *120:8 8.7648e-05
8 *120:9 2.2759e-05
9 *120:10 0.000273109
10 *120:11 2.2759e-05
11 *120:12 0.000273109
12 *120:14 4.3824e-05
13 *120:15 4.3824e-05

*RES
1 *120:16 *932:Q 1.4
2 *120:15 *120:16 1.4
3 *120:14 *120:15 0.248566
4 *120:12 *120:14 1.4
5 *120:11 *931:SI 1.4
6 *120:10 *120:12 1.49146
7 *120:9 *120:11 0.124289
8 *120:8 *120:10 1.4
9 *120:7 *120:9 1.4
10 *120:7 *120:8 0.497132
11 *120:6 *120:7 0.869981
12 *120:5 *120:6 1.4
13 *120:4 *120:5 2.11291
14 *120:3 *120:4 1.4
15 *120:2 *120:3 0.497132
16 *120:1 *120:2 1.4
17 *634:C *120:1 1.4
*END

*D_NET *121 0.00326183

*CONN
*I *634:B I *C 14.935 36.975 *L 0.00163 *D NAND4BXL
*I *932:SI I *C 5.945 28.565 *L 0.00268 *D SDFFRHQX4
*I *916:Q O *C 6.235 26.535 *L 0 *D SDFFRHQX4

*CAP
1 *121:2 4.3824e-05
2 *121:3 4.3824e-05
3 *121:4 0.000637253
4 *121:5 0.000637253
5 *121:6 0.000679272
6 *121:7 0.000723096
7 *121:8 0.000182072
8 *121:9 4.3824e-05
9 *121:10 0.000182072
10 *121:11 2.2759e-05
11 *121:12 2.1912e-05
12 *121:13 2.2759e-05
13 *121:14 2.1912e-05

*RES
1 *121:16 *916:Q 1.4
2 *121:14 *121:16 1.4
3 *121:13 *932:SI 1.4
4 *121:12 *121:14 0.124283
5 *121:11 *121:13 0.124289
6 *121:10 *121:12 1.4
7 *121:9 *121:11 1.4
8 *121:8 *121:10 0.99431
9 *121:7 *121:9 0.248566
10 *121:7 *121:8 1.4
11 *121:6 *121:7 3.85277
12 *121:5 *121:6 1.4
13 *121:4 *121:5 3.48008
14 *121:3 *121:4 1.4
15 *121:2 *121:3 0.248566
16 *121:1 *121:2 1.4
17 *634:B *121:1 1.4
*END

*D_NET *122 0.00424235

*CONN
*I *881:D I *C 79.025 85.985 *L 0.00278 *D SDFFRHQX8
*I *576:Q O *C 68.875 70.035 *L 0 *D SDFFRHQX1
*I *649:SI I *C 73.225 68.005 *L 0.00269 *D SDFFSHQX1

*CAP
1 *122:2 0.000330599
2 *122:3 0.000330599
3 *122:4 0.00119066
4 *122:5 0.00119066
5 *122:6 6.6631e-05
6 *122:7 0.000421996
7 *122:8 0.000155705
8 *122:9 0.000355365
9 *122:10 0.000155705
10 *122:12 2.22103e-05
11 *122:14 2.22103e-05

*RES
1 *122:15 *649:SI 1.4
2 *122:14 *122:15 1.4
3 *122:12 *122:14 0.124283
4 *122:11 *576:Q 1.4
5 *122:10 *122:12 1.4
6 *122:9 *122:11 1.4
7 *122:8 *122:10 0.869979
8 *122:7 *122:9 1.98853
9 *122:7 *122:8 1.4
10 *122:6 *122:7 0.372849
11 *122:5 *122:6 1.4
12 *122:4 *122:5 6.83571
13 *122:3 *122:4 1.4
14 *122:2 *122:3 1.98853
15 *122:1 *122:2 1.4
16 *881:D *122:1 1.4
*END

*D_NET *123 0.00261122

*CONN
*I *576:SI I *C 60.465 70.615 *L 0.00276 *D SDFFRHQX1
*I *577:Q O *C 61.335 73.805 *L 0 *D SDFFRHQX1
*I *880:D I *C 66.555 80.765 *L 0.00278 *D SDFFRHQX8

*CAP
1 *123:2 2.22103e-05
2 *123:3 2.22103e-05
3 *123:4 8.89745e-05
4 *123:5 8.89745e-05
5 *123:6 8.88413e-05
6 *123:7 8.88413e-05
7 *123:8 0.000155705
8 *123:9 0.000700061
9 *123:10 0.000544355
10 *123:12 0.000384516
11 *123:13 0.000384516
12 *123:14 2.10083e-05
13 *123:15 2.10083e-05

*RES
1 *123:15 *880:D 1.4
2 *123:14 *123:15 0.124289
3 *123:13 *123:14 1.4
4 *123:12 *123:13 2.23709
5 *123:10 *123:12 1.4
6 *123:9 *577:Q 1.4
7 *123:9 *123:10 3.10712
8 *123:8 *123:9 0.869979
9 *123:7 *123:8 1.4
10 *123:6 *123:7 0.497132
11 *123:5 *123:6 1.4
12 *123:4 *123:5 0.497131
13 *123:3 *123:4 1.4
14 *123:2 *123:3 0.124283
15 *123:1 *123:2 1.4
16 *576:SI *123:1 1.4
*END

*D_NET *124 0.0110732

*CONN
*I *656:A I *C 74.675 73.225 *L 0.0017 *D MX2X1
*I *657:A I *C 76.995 65.105 *L 0.00273 *D NOR4X1
*I *943:Q O *C 78.735 7.685 *L 0 *D SDFFRHQX4
*I *934:SI I *C 81.345 12.905 *L 0.00268 *D SDFFRHQX4

*CAP
1 *124:1 0.000511604
2 *124:2 0.000511604
3 *124:3 8.88413e-05
4 *124:4 8.88413e-05
5 *124:5 0.000111218
6 *124:6 0.00406559
7 *124:7 8.88413e-05
8 *124:8 0.00395437
9 *124:9 8.88413e-05
10 *124:10 0.000199054
11 *124:12 0.000199054
12 *124:14 9.09704e-05
13 *124:15 0.000418464
14 *124:16 0.000164186
15 *124:17 0.000327494
16 *124:18 0.000164186

*RES
1 *124:20 *934:SI 1.4
2 *124:18 *124:20 1.4
3 *124:17 *943:Q 1.4
4 *124:16 *124:18 1.11855
5 *124:15 *124:17 2.2371
6 *124:15 *124:16 1.4
7 *124:14 *124:15 0.621417
8 *124:12 *124:14 1.4
9 *124:11 *657:A 1.4
10 *124:10 *124:12 1.24288
11 *124:9 *124:11 1.4
12 *124:8 *124:10 1.4
13 *124:7 *124:9 0.497132
14 *124:6 *124:8 21.7495
15 *124:6 *124:7 1.4
16 *124:5 *124:6 0.621413
17 *124:4 *124:5 1.4
18 *124:3 *124:4 0.497132
19 *124:2 *124:3 1.4
20 *124:1 *124:2 2.8585
21 *656:A *124:1 1.4
*END

*D_NET *125 0.0119356

*CONN
*I *655:A I *C 71.775 73.225 *L 0.0017 *D MX2X1
*I *657:B I *C 76.415 65.395 *L 0.00273 *D NOR4X1
*I *938:Q O *C 87.725 5.655 *L 0 *D SDFFRHQX4
*I *943:SI I *C 88.595 7.685 *L 0.00268 *D SDFFRHQX4

*CAP
1 *125:2 4.44206e-05
2 *125:3 4.44206e-05
3 *125:4 0.000578335
4 *125:5 0.000578335
5 *125:6 0.000399786
6 *125:7 0.00118722
7 *125:8 0.000787439
8 *125:9 2.22436e-05
9 *125:10 0.00395347
10 *125:11 2.22436e-05
11 *125:12 0.00408083
12 *125:14 5.47287e-05
13 *125:15 0.000127359
14 *125:16 5.47287e-05

*RES
1 *125:18 *943:SI 1.4
2 *125:16 *125:18 1.4
3 *125:15 *938:Q 1.4
4 *125:14 *125:16 0.37285
5 *125:12 *125:15 0.869984
6 *125:12 *125:14 1.4
7 *125:11 *657:B 1.4
8 *125:10 *125:12 24.8569
9 *125:9 *125:11 0.124283
10 *125:8 *125:10 1.4
11 *125:7 *125:9 1.4
12 *125:7 *125:8 4.84703
13 *125:6 *125:7 2.23709
14 *125:5 *125:6 1.4
15 *125:4 *125:5 3.23135
16 *125:3 *125:4 1.4
17 *125:2 *125:3 0.248566
18 *125:1 *125:2 1.4
19 *655:A *125:1 1.4
*END

*D_NET *126 0.0102087

*CONN
*I *653:A I *C 75.255 68.005 *L 0.0017 *D MX2X1
*I *657:C I *C 75.835 65.395 *L 0.00274 *D NOR4X1
*I *938:SI I *C 77.865 5.655 *L 0.00268 *D SDFFRHQX4
*I *935:Q O *C 78.445 10.875 *L 0 *D SDFFRHQX4

*CAP
1 *126:2 2.22103e-05
2 *126:3 2.22103e-05
3 *126:4 0.000200193
4 *126:5 0.000200193
5 *126:6 4.44206e-05
6 *126:7 2.22103e-05
7 *126:8 2.22103e-05
8 *126:10 0.00416853
9 *126:12 0.00416853
10 *126:13 0.000181789
11 *126:14 0.000181789
12 *126:15 6.39719e-05
13 *126:16 0.000447803
14 *126:17 3.94197e-05
15 *126:18 0.000383831
16 *126:19 3.94197e-05

*RES
1 *126:21 *935:Q 1.4
2 *126:19 *126:21 1.4
3 *126:18 *938:SI 1.4
4 *126:17 *126:19 0.248574
5 *126:16 *126:18 2.23709
6 *126:16 *126:17 1.4
7 *126:15 *126:16 0.372848
8 *126:14 *126:15 1.4
9 *126:13 *126:14 1.11859
10 *126:12 *126:13 1.4
11 *126:10 *126:12 22.9923
12 *126:9 *657:C 1.4
13 *126:8 *126:10 1.4
14 *126:7 *126:9 1.4
15 *126:6 *126:8 0.124283
16 *126:6 *126:7 0.124283
17 *126:5 *126:6 1.4
18 *126:4 *126:5 1.11854
19 *126:3 *126:4 1.4
20 *126:2 *126:3 0.124283
21 *126:1 *126:2 1.4
22 *653:A *126:1 1.4
*END

*D_NET *127 0.00939841

*CONN
*I *657:D I *C 75.545 65.395 *L 0.00283 *D NOR4X1
*I *654:A I *C 73.225 65.395 *L 0.0017 *D MX2X1
*I *934:Q O *C 71.485 12.905 *L 0 *D SDFFRHQX4
*I *924:SI I *C 67.425 12.905 *L 0.00268 *D SDFFRHQX4

*CAP
1 *127:1 2.22436e-05
2 *127:2 2.22436e-05
3 *127:3 0.000177683
4 *127:4 0.000310944
5 *127:5 2.22436e-05
6 *127:6 0.000133262
7 *127:7 2.22436e-05
8 *127:8 0.00406099
9 *127:10 0.00406099
10 *127:11 0.000282783
11 *127:13 0.000282783

*RES
1 *127:14 *924:SI 1.4
2 *127:13 *127:14 1.4
3 *127:11 *127:13 1.74004
4 *127:10 *934:Q 1.4
5 *127:10 *127:11 1.4
6 *127:8 *127:10 22.3709
7 *127:7 *654:A 1.4
8 *127:6 *127:8 1.4
9 *127:5 *127:7 0.124283
10 *127:4 *127:6 0.745698
11 *127:4 *127:5 1.4
12 *127:3 *127:4 0.994264
13 *127:2 *127:3 1.4
14 *127:1 *127:2 0.124283
15 *657:D *127:1 1.4
*END

*D_NET *128 0.00288083

*CONN
*I *887:D I *C 76.705 83.955 *L 0.00278 *D SDFFRHQX8
*I *650:SI I *C 74.385 78.445 *L 0.00269 *D SDFFSHQX1
*I *652:Q O *C 78.445 75.255 *L 0 *D SDFFRHQX1
*I *656:B I *C 73.515 73.225 *L 0.00184 *D MX2X1

*CAP
1 *128:2 2.1362e-05
2 *128:3 2.1362e-05
3 *128:4 0.000443027
4 *128:5 0.000443027
5 *128:6 0.000199893
6 *128:7 0.000199893
7 *128:8 0.000244062
8 *128:9 4.38696e-05
9 *128:10 0.000200193
10 *128:12 0.000354153
11 *128:13 0.000309733
12 *128:14 4.44206e-05
13 *128:16 0.000155705
14 *128:18 0.000155705
15 *128:19 2.22103e-05
16 *128:20 2.22103e-05

*RES
1 *128:21 *656:B 1.4
2 *128:20 *128:21 1.4
3 *128:19 *128:20 0.124283
4 *128:18 *128:19 1.4
5 *128:16 *128:18 0.869979
6 *128:15 *652:Q 1.4
7 *128:14 *128:16 1.4
8 *128:13 *128:15 1.4
9 *128:12 *128:14 0.248566
10 *128:12 *128:13 1.73996
11 *128:10 *128:12 1.4
12 *128:9 *650:SI 1.4
13 *128:8 *128:10 1.11854
14 *128:8 *128:9 0.248568
15 *128:7 *128:8 1.4
16 *128:6 *128:7 1.11855
17 *128:5 *128:6 1.4
18 *128:4 *128:5 2.61005
19 *128:3 *128:4 1.4
20 *128:2 *128:3 0.124283
21 *128:1 *128:2 1.4
22 *887:D *128:1 1.4
*END

*D_NET *129 0.00911256

*CONN
*I *790:SI I *C 29.145 75.545 *L 0.00268 *D SDFFRHQX4
*I *886:D I *C 59.305 85.985 *L 0.00278 *D SDFFRHQX8
*I *650:Q O *C 65.975 79.025 *L 0 *D SDFFSHQX1
*I *655:B I *C 70.615 73.225 *L 0.00184 *D MX2X1

*CAP
1 *129:1 0.000167188
2 *129:2 0.000167188
3 *129:3 0.00242429
4 *129:4 0.00242429
5 *129:5 2.22436e-05
6 *129:6 0.000612329
7 *129:7 0.000510837
8 *129:8 0.000590085
9 *129:9 0.000510837
10 *129:11 0.000464028
11 *129:12 8.58862e-05
12 *129:13 0.000378142
13 *129:15 0.000355365
14 *129:16 0.000355365
15 *129:17 2.22436e-05
16 *129:18 2.22436e-05

*RES
1 *129:18 *655:B 1.4
2 *129:17 *129:18 0.124283
3 *129:16 *129:17 1.4
4 *129:15 *129:16 1.98853
5 *129:13 *129:15 1.4
6 *129:12 *650:Q 1.4
7 *129:11 *129:13 2.11281
8 *129:11 *129:12 0.497146
9 *129:9 *129:11 1.4
10 *129:8 *886:D 1.4
11 *129:7 *129:9 2.85851
12 *129:6 *129:8 3.48008
13 *129:6 *129:7 1.4
14 *129:5 *129:6 0.124283
15 *129:4 *129:5 1.4
16 *129:3 *129:4 12.9254
17 *129:2 *129:3 1.4
18 *129:1 *129:2 0.869979
19 *790:SI *129:1 1.4
*END

*D_NET *130 0.00546686

*CONN
*I *653:B I *C 76.415 68.005 *L 0.00184 *D MX2X1
*I *652:SI I *C 70.035 75.835 *L 0.00276 *D SDFFRHQX1
*I *651:Q O *C 69.165 70.035 *L 0 *D SDFFRHQX1
*I *888:D I *C 77.285 89.175 *L 0.00278 *D SDFFRHQX8

*CAP
1 *130:2 2.22103e-05
2 *130:3 2.22103e-05
3 *130:4 0.000133462
4 *130:5 0.000133462
5 *130:6 0.000510837
6 *130:7 0.000510837
7 *130:8 4.44873e-05
8 *130:9 0.000467116
9 *130:10 0.00139951
10 *130:11 6.6631e-05
11 *130:12 0.000976882
12 *130:14 6.6631e-05
13 *130:15 0.00053405
14 *130:16 2.22436e-05
15 *130:17 0.00053405
16 *130:18 2.22436e-05

*RES
1 *130:19 *888:D 1.4
2 *130:18 *651:Q 1.4
3 *130:17 *130:19 1.4
4 *130:16 *130:18 0.124283
5 *130:15 *130:17 3.10708
6 *130:14 *130:16 1.4
7 *130:12 *130:15 1.4
8 *130:11 *130:14 0.372849
9 *130:10 *652:SI 1.4
10 *130:10 *130:12 5.71723
11 *130:9 *130:11 1.4
12 *130:9 *130:10 2.36137
13 *130:8 *130:9 0.248565
14 *130:7 *130:8 1.4
15 *130:6 *130:7 2.85851
16 *130:5 *130:6 1.4
17 *130:4 *130:5 0.745696
18 *130:3 *130:4 1.4
19 *130:2 *130:3 0.124283
20 *130:1 *130:2 1.4
21 *653:B *130:1 1.4
*END

*D_NET *131 0.00716424

*CONN
*I *654:B I *C 72.065 65.395 *L 0.00184 *D MX2X1
*I *658:SI I *C 69.745 62.785 *L 0.00276 *D SDFFRHQX1
*I *649:Q O *C 64.815 68.585 *L 0 *D SDFFSHQX1
*I *889:D I *C 51.475 89.175 *L 0.00278 *D SDFFRHQX8

*CAP
1 *131:1 4.44873e-05
2 *131:2 4.44873e-05
3 *131:3 0.000155472
4 *131:4 0.000177683
5 *131:5 8.89745e-05
6 *131:6 2.22103e-05
7 *131:7 8.89745e-05
8 *131:8 0.00024468
9 *131:9 0.000399786
10 *131:10 0.00024468
11 *131:11 0.000399786
12 *131:13 0.000111218
13 *131:14 0.00164419
14 *131:15 0.00153297
15 *131:17 0.000982319
16 *131:18 0.000982319

*RES
1 *131:19 *889:D 1.4
2 *131:18 *131:19 1.4
3 *131:17 *131:18 5.71702
4 *131:15 *131:17 1.4
5 *131:14 *649:Q 1.4
6 *131:14 *131:15 8.8243
7 *131:13 *131:14 0.621413
8 *131:11 *131:13 1.4
9 *131:10 *658:SI 1.4
10 *131:9 *131:11 2.23709
11 *131:8 *131:10 1.36711
12 *131:7 *131:9 1.4
13 *131:6 *131:8 1.4
14 *131:5 *131:7 0.497131
15 *131:4 *131:6 0.124283
16 *131:4 *131:5 1.4
17 *131:3 *131:4 0.869981
18 *131:2 *131:3 1.4
19 *131:1 *131:2 0.248565
20 *654:B *131:1 1.4
*END

*D_NET *132 0.00945723

*CONN
*I *905:SI I *C 35.235 60.175 *L 0.00271 *D SDFFRHQX8
*I *665:A I *C 46.545 16.095 *L 0.00162 *D NOR2XL
*I *953:Q O *C 44.225 12.905 *L 0 *D SDFFRHQX4

*CAP
1 *132:1 2.3884e-05
2 *132:2 2.3884e-05
3 *132:3 0.000756785
4 *132:4 0.000756785
5 *132:5 0.00343468
6 *132:6 0.00343468
7 *132:7 2.11565e-05
8 *132:8 0.000148095
9 *132:9 0.000126939
10 *132:10 0.000279813
11 *132:11 4.30482e-05
12 *132:12 0.000279813
13 *132:13 4.30482e-05
14 *132:14 4.2313e-05
15 *132:16 4.2313e-05

*RES
1 *132:17 *953:Q 1.4
2 *132:16 *132:17 1.4
3 *132:14 *132:16 0.248577
4 *132:13 *665:A 1.4
5 *132:12 *132:14 1.4
6 *132:11 *132:13 0.248577
7 *132:10 *132:12 1.61575
8 *132:9 *132:11 1.4
9 *132:8 *132:10 1.4
10 *132:8 *132:9 0.74573
11 *132:7 *132:8 0.124288
12 *132:6 *132:7 1.4
13 *132:5 *132:6 18.5189
14 *132:4 *132:5 1.4
15 *132:3 *132:4 3.97705
16 *132:2 *132:3 1.4
17 *132:1 *132:2 0.124283
18 *905:SI *132:1 1.4
*END

*D_NET *133 0.00177439

*CONN
*I *665:B I *C 46.835 15.805 *L 0.00171 *D NOR2XL
*I *953:SI I *C 54.085 12.905 *L 0.00268 *D SDFFRHQX4
*I *940:Q O *C 53.215 10.875 *L 0 *D SDFFRHQX4

*CAP
1 *133:1 2.15241e-05
2 *133:2 2.15241e-05
3 *133:3 0.000317347
4 *133:4 0.000317347
5 *133:5 0.000193717
6 *133:6 0.000193717
7 *133:7 0.000144744
8 *133:8 0.00020534
9 *133:9 6.05964e-05
10 *133:10 0.000149268
11 *133:12 0.000149268

*RES
1 *133:12 *940:Q 1.4
2 *133:11 *953:SI 1.4
3 *133:10 *133:12 0.869979
4 *133:9 *133:11 1.4
5 *133:8 *133:10 1.4
6 *133:8 *133:9 0.372865
7 *133:7 *133:8 0.870018
8 *133:6 *133:7 1.4
9 *133:5 *133:6 1.1186
10 *133:4 *133:5 1.4
11 *133:3 *133:4 1.86433
12 *133:2 *133:3 1.4
13 *133:1 *133:2 0.124288
14 *665:B *133:1 1.4
*END

*D_NET *134 0.00353991

*CONN
*I *663:A1N I *C 45.675 15.805 *L 0.0017 *D OAI2BB1X1
*I *661:A0 I *C 42.195 16.095 *L 0.00265 *D AOI21X1
*I *951:SI I *C 38.425 7.685 *L 0.00268 *D SDFFRHQX4
*I *952:Q O *C 47.995 5.655 *L 0 *D SDFFRHQX4

*CAP
1 *134:1 2.15241e-05
2 *134:2 2.15241e-05
3 *134:3 0.000232721
4 *134:4 0.000253878
5 *134:5 0.000559626
6 *134:6 2.11565e-05
7 *134:7 0.00058115
8 *134:8 4.30482e-05
9 *134:9 0.000296191
10 *134:10 2.15241e-05
11 *134:11 4.30482e-05
12 *134:12 0.000296191
13 *134:13 0.000401973
14 *134:15 2.15241e-05
15 *134:16 0.000401973
16 *134:17 2.15241e-05
17 *134:18 0.000150669
18 *134:20 0.000150669

*RES
1 *134:20 *952:Q 1.4
2 *134:18 *134:20 0.870019
3 *134:17 *951:SI 1.4
4 *134:16 *134:18 1.4
5 *134:15 *134:17 0.124288
6 *134:13 *134:16 2.36148
7 *134:12 *134:15 1.4
8 *134:11 *661:A0 1.4
9 *134:10 *134:13 1.4
10 *134:9 *134:12 1.74004
11 *134:8 *134:11 0.248577
12 *134:7 *134:10 0.124288
13 *134:7 *134:9 1.4
14 *134:6 *134:8 1.4
15 *134:5 *134:7 3.2315
16 *134:4 *134:6 0.124288
17 *134:4 *134:5 1.4
18 *134:3 *134:4 1.36717
19 *134:2 *134:3 1.4
20 *134:1 *134:2 0.124288
21 *663:A1N *134:1 1.4
*END

*D_NET *135 0.00205234

*CONN
*I *663:A0N I *C 45.095 16.095 *L 0.00173 *D OAI2BB1X1
*I *940:SI I *C 43.355 10.875 *L 0.00268 *D SDFFRHQX4
*I *951:Q O *C 48.285 7.685 *L 0 *D SDFFRHQX4

*CAP
1 *135:2 4.2313e-05
2 *135:3 4.2313e-05
3 *135:4 0.000387434
4 *135:5 0.000387434
5 *135:6 0.00035966
6 *135:7 0.000275034
7 *135:8 8.46259e-05
8 *135:9 0.000236765
9 *135:11 0.000236765

*RES
1 *135:11 *951:Q 1.4
2 *135:10 *940:SI 1.4
3 *135:9 *135:11 1.36717
4 *135:8 *135:10 1.4
5 *135:7 *135:9 1.4
6 *135:6 *135:8 0.497153
7 *135:6 *135:7 1.61575
8 *135:5 *135:6 1.4
9 *135:4 *135:5 2.23719
10 *135:3 *135:4 1.4
11 *135:2 *135:3 0.248577
12 *135:1 *135:2 1.4
13 *663:A0N *135:1 1.4
*END

*D_NET *136 0.0036238

*CONN
*I *952:SI I *C 38.135 5.655 *L 0.00268 *D SDFFRHQX4
*I *664:C0 I *C 35.235 16.385 *L 0.00287 *D OAI211X1
*I *930:Q O *C 31.465 10.875 *L 0 *D SDFFRHQX4
*I *661:A1 I *C 42.485 16.095 *L 0.00278 *D AOI21X1

*CAP
1 *136:1 0.000301337
2 *136:2 0.000301337
3 *136:3 0.000211565
4 *136:4 0.000211565
5 *136:5 8.60963e-05
6 *136:6 0.00047353
7 *136:7 0.000408958
8 *136:8 0.000275034
9 *136:9 2.15241e-05
10 *136:10 0.000528912
11 *136:11 0.000275034
12 *136:13 0.000528912

*RES
1 *136:15 *661:A1 1.4
2 *136:14 *930:Q 1.4
3 *136:13 *136:15 1.4
4 *136:11 *136:14 1.4
5 *136:10 *136:13 3.10721
6 *136:9 *664:C0 1.4
7 *136:8 *136:11 1.61575
8 *136:7 *136:10 1.4
9 *136:7 *136:9 0.124288
10 *136:6 *136:8 1.4
11 *136:6 *136:7 2.23719
12 *136:5 *136:6 0.497154
13 *136:4 *136:5 1.4
14 *136:3 *136:4 1.24288
15 *136:2 *136:3 1.4
16 *136:1 *136:2 1.74004
17 *952:SI *136:1 1.4
*END

*D_NET *137 0.0016627

*CONN
*I *930:SI I *C 41.325 10.875 *L 0.00268 *D SDFFRHQX4
*I *950:Q O *C 41.035 12.905 *L 0 *D SDFFRHQX4
*I *664:B0 I *C 34.945 15.805 *L 0.0028 *D OAI211X1

*CAP
1 *137:1 0.000150669
2 *137:2 0.000150669
3 *137:3 2.11565e-05
4 *137:4 0.000465443
5 *137:6 0.000444286
6 *137:8 0.000215241
7 *137:9 0.000215241

*RES
1 *137:9 *664:B0 1.4
2 *137:8 *137:9 1.24288
3 *137:6 *137:8 1.4
4 *137:5 *950:Q 1.4
5 *137:4 *137:6 2.61006
6 *137:4 *137:5 1.4
7 *137:3 *137:4 0.124288
8 *137:2 *137:3 1.4
9 *137:1 *137:2 0.870019
10 *930:SI *137:1 1.4
*END

*D_NET *138 0.00180361

*CONN
*I *949:SI I *C 34.655 5.655 *L 0.00268 *D SDFFRHQX4
*I *942:Q O *C 35.815 7.685 *L 0 *D SDFFRHQX4
*I *664:A1 I *C 34.655 15.805 *L 0.00278 *D OAI211X1

*CAP
1 *138:2 4.2313e-05
2 *138:3 4.2313e-05
3 *138:4 0.000172193
4 *138:5 0.000172193
5 *138:6 8.46259e-05
6 *138:7 4.2313e-05
7 *138:8 4.2313e-05
8 *138:9 2.15241e-05
9 *138:10 0.00058115
10 *138:11 2.15241e-05
11 *138:12 0.00058115

*RES
1 *138:12 *664:A1 1.4
2 *138:11 *942:Q 1.4
3 *138:10 *138:12 3.35579
4 *138:9 *138:11 0.124288
5 *138:8 *138:10 1.4
6 *138:7 *138:9 1.4
7 *138:6 *138:8 0.248577
8 *138:6 *138:7 0.248577
9 *138:5 *138:6 1.4
10 *138:4 *138:5 0.994307
11 *138:3 *138:4 1.4
12 *138:2 *138:3 0.248577
13 *138:1 *138:2 1.4
14 *949:SI *138:1 1.4
*END

*D_NET *139 0.00501732

*CONN
*I *848:B0 I *C 20.735 18.125 *L 0.00277 *D AOI31X1
*I *846:AN I *C 24.795 18.415 *L 0.00174 *D NOR2BXL
*I *674:A I *C 25.085 33.785 *L 0.00273 *D INVX1
*I *967:Q O *C 31.465 16.095 *L 0 *D SDFFRHQX4
*I *950:SI I *C 31.175 12.905 *L 0.00268 *D SDFFRHQX4

*CAP
1 *139:1 2.16478e-05
2 *139:2 2.16478e-05
3 *139:3 0.000271737
4 *139:4 0.000291146
5 *139:5 1.94098e-05
6 *139:6 4.32957e-05
7 *139:7 8.65914e-05
8 *139:8 4.32957e-05
9 *139:9 0.00122008
10 *139:11 0.000459329
11 *139:12 0.00113349
12 *139:13 0.000459329
13 *139:15 0.000215241
14 *139:16 0.000344385
15 *139:18 0.000129145
16 *139:19 2.11565e-05
17 *139:20 2.11565e-05
18 *139:21 0.00010762
19 *139:22 0.00010762

*RES
1 *139:22 *950:SI 1.4
2 *139:21 *139:22 0.621442
3 *139:20 *139:21 1.4
4 *139:19 *139:20 0.124288
5 *139:18 *139:19 1.4
6 *139:16 *139:18 0.74573
7 *139:16 *967:Q 1.4
8 *139:15 *139:16 1.24288
9 *139:13 *139:15 1.4
10 *139:12 *674:A 1.4
11 *139:11 *139:13 2.73435
12 *139:9 *139:12 6.33871
13 *139:9 *139:11 1.4
14 *139:8 *846:AN 1.4
15 *139:7 *139:9 0.497153
16 *139:6 *139:8 0.248576
17 *139:5 *139:7 1.4
18 *139:4 *139:6 1.4
19 *139:4 *139:5 0.124289
20 *139:3 *139:4 1.74004
21 *139:2 *139:3 1.4
22 *139:1 *139:2 0.124288
23 *848:B0 *139:1 1.4
*END

*D_NET *140 0.00552546

*CONN
*I *675:A I *C 19.575 33.785 *L 0.00273 *D INVX1
*I *967:SI I *C 21.605 16.095 *L 0.00268 *D SDFFRHQX4
*I *961:Q O *C 28.855 12.905 *L 0 *D SDFFRHQX4
*I *844:S0 I *C 27.985 18.415 *L 0.00372 *D MXI2XL
*I *847:AN I *C 31.465 18.125 *L 0.00178 *D NAND3BX1

*CAP
1 *140:1 2.2759e-05
2 *140:2 2.2759e-05
3 *140:3 2.1912e-05
4 *140:4 2.1912e-05
5 *140:5 0.00137272
6 *140:6 0.00137272
7 *140:7 0.000116459
8 *140:8 0.000554827
9 *140:9 0.000459525
10 *140:11 2.11565e-05
11 *140:12 0.000236765
12 *140:14 0.00010762
13 *140:15 0.000236765
14 *140:16 0.000172193
15 *140:17 6.34694e-05
16 *140:18 6.45723e-05
17 *140:19 0.000232721
18 *140:20 6.34694e-05
19 *140:21 2.11565e-05
20 *140:22 0.000232721
21 *140:24 2.11565e-05
22 *140:25 4.30482e-05
23 *140:28 4.30482e-05

*RES
1 *140:28 *847:AN 1.4
2 *140:27 *844:S0 1.4
3 *140:25 *140:28 0.248577
4 *140:24 *140:27 1.4
5 *140:23 *961:Q 1.4
6 *140:22 *140:25 1.4
7 *140:21 *140:24 0.124288
8 *140:20 *140:23 1.4
9 *140:19 *140:22 1.36717
10 *140:18 *140:21 1.4
11 *140:17 *140:20 0.372865
12 *140:16 *140:19 1.4
13 *140:16 *140:18 0.372865
14 *140:15 *140:17 1.4
15 *140:14 *140:16 0.621442
16 *140:12 *140:15 1.36717
17 *140:11 *140:14 1.4
18 *140:10 *967:SI 1.4
19 *140:9 *140:12 1.4
20 *140:9 *140:11 0.124288
21 *140:8 *140:10 1.4
22 *140:8 *140:9 2.73435
23 *140:7 *140:8 0.745732
24 *140:6 *140:7 1.4
25 *140:5 *140:6 7.70588
26 *140:4 *140:5 1.4
27 *140:3 *140:4 0.124283
28 *140:2 *140:3 1.4
29 *140:1 *140:2 0.124289
30 *675:A *140:1 1.4
*END

*D_NET *141 0.00428844

*CONN
*I *849:B0 I *C 19.865 21.315 *L 0.00278 *D AOI211X1
*I *848:A0 I *C 19.575 18.415 *L 0.00261 *D AOI31X1
*I *680:A I *C 18.125 28.565 *L 0.00273 *D INVX1
*I *961:SI I *C 18.995 12.905 *L 0.00268 *D SDFFRHQX4
*I *960:Q O *C 28.565 10.875 *L 0 *D SDFFRHQX4

*CAP
1 *141:1 4.32957e-05
2 *141:2 4.32957e-05
3 *141:3 1.94098e-05
4 *141:4 0.000116459
5 *141:5 0.000259774
6 *141:6 9.70488e-05
7 *141:7 0.000671083
8 *141:8 0.000507346
9 *141:10 0.000411309
10 *141:11 0.000507346
11 *141:12 0.000655369
12 *141:14 0.00061655
13 *141:15 3.88195e-05
14 *141:16 0.000150669
15 *141:18 0.000150669

*RES
1 *141:18 *960:Q 1.4
2 *141:17 *961:SI 1.4
3 *141:16 *141:18 0.870019
4 *141:15 *141:17 1.4
5 *141:14 *141:16 1.4
6 *141:12 *141:15 0.248578
7 *141:12 *141:14 3.85295
8 *141:11 *680:A 1.4
9 *141:10 *141:12 1.4
10 *141:8 *141:11 2.85863
11 *141:7 *141:10 2.36147
12 *141:7 *848:A0 1.4
13 *141:6 *141:8 1.4
14 *141:5 *141:7 1.49146
15 *141:4 *141:6 0.621444
16 *141:4 *141:5 1.4
17 *141:3 *141:4 0.124289
18 *141:2 *141:3 1.4
19 *141:1 *141:2 0.248576
20 *849:B0 *141:1 1.4
*END

*D_NET *142 0.00374721

*CONN
*I *676:A I *C 19.575 26.535 *L 0.00273 *D INVX1
*I *849:C0 I *C 20.445 21.315 *L 0.00281 *D AOI211X1
*I *848:A1 I *C 19.865 18.125 *L 0.00269 *D AOI31X1
*I *960:SI I *C 18.705 10.875 *L 0.00268 *D SDFFRHQX4
*I *962:Q O *C 23.055 7.685 *L 0 *D SDFFRHQX4

*CAP
1 *142:1 4.55181e-05
2 *142:2 4.55181e-05
3 *142:3 4.3824e-05
4 *142:4 4.3824e-05
5 *142:5 0.000436846
6 *142:6 0.000674972
7 *142:7 1.94098e-05
8 *142:8 0.000779322
9 *142:9 1.94098e-05
10 *142:10 1.94098e-05
11 *142:11 0.000562844
12 *142:13 1.94098e-05
13 *142:14 9.70488e-05
14 *142:15 2.16478e-05
15 *142:18 9.70488e-05
16 *142:19 0.000155278
17 *142:22 0.000155278
18 *142:24 0.000216478
19 *142:25 0.000216478
20 *142:26 3.88195e-05
21 *142:27 3.88195e-05

*RES
1 *142:28 *962:Q 1.4
2 *142:27 *142:28 1.4
3 *142:26 *142:27 0.248578
4 *142:25 *142:26 1.4
5 *142:24 *142:25 1.24288
6 *142:22 *142:24 1.4
7 *142:21 *960:SI 1.4
8 *142:19 *142:22 0.99431
9 *142:18 *142:21 1.4
10 *142:17 *848:A1 1.4
11 *142:15 *142:19 1.4
12 *142:14 *142:18 0.621444
13 *142:13 *142:17 1.4
14 *142:12 *849:C0 1.4
15 *142:11 *142:15 0.124288
16 *142:11 *142:14 1.4
17 *142:10 *142:13 0.124289
18 *142:9 *142:12 1.4
19 *142:8 *142:11 3.1072
20 *142:8 *142:10 1.4
21 *142:7 *142:9 0.124289
22 *142:6 *142:8 1.36717
23 *142:6 *142:7 1.4
24 *142:5 *142:6 2.48576
25 *142:4 *142:5 1.4
26 *142:3 *142:4 0.248566
27 *142:2 *142:3 1.4
28 *142:1 *142:2 0.248577
29 *676:A *142:1 1.4
*END

*D_NET *143 0.00434979

*CONN
*I *679:A I *C 18.995 28.565 *L 0.00273 *D INVX1
*I *849:A0 I *C 19.23 21.3275 *L 0.00263 *D AOI211X1
*I *851:AN I *C 18.125 18.415 *L 0.00174 *D NAND2BXL
*I *963:Q O *C 16.095 5.655 *L 0 *D SDFFRHQX4
*I *962:SI I *C 13.195 7.685 *L 0.00268 *D SDFFRHQX4

*CAP
1 *143:2 2.1912e-05
2 *143:3 2.1912e-05
3 *143:4 0.000549522
4 *143:5 0.000749578
5 *143:6 4.10563e-06
6 *143:7 0.00019595
7 *143:9 7.7639e-05
8 *143:10 0.000155278
9 *143:11 2.16478e-05
10 *143:12 7.7639e-05
11 *143:13 2.16478e-05
12 *143:14 0.000822618
13 *143:16 0.000822618
14 *143:17 5.82293e-05
15 *143:18 0.000252327
16 *143:19 0.000151535
17 *143:20 0.000194098
18 *143:21 0.000151535

*RES
1 *143:22 *962:SI 1.4
2 *143:21 *963:Q 1.4
3 *143:20 *143:22 1.4
4 *143:19 *143:21 0.870017
5 *143:18 *143:20 1.24289
6 *143:18 *143:19 1.4
7 *143:17 *143:18 0.372866
8 *143:16 *143:17 1.4
9 *143:14 *143:16 4.72295
10 *143:13 *851:AN 1.4
11 *143:12 *143:14 1.4
12 *143:11 *143:13 0.124288
13 *143:10 *143:12 0.497155
14 *143:10 *143:11 1.4
15 *143:9 *143:10 0.497155
16 *143:7 *143:9 1.4
17 *143:6 *849:A0 1.4
18 *143:5 *143:7 1.12502
19 *143:5 *143:6 0.0235719
20 *143:4 *143:5 3.10078
21 *143:3 *143:4 1.4
22 *143:2 *143:3 0.124283
23 *143:1 *143:2 1.4
24 *679:A *143:1 1.4
*END

*D_NET *144 0.00819617

*CONN
*I *854:A I *C 16.385 18.125 *L 0.00162 *D NOR2XL
*I *681:A I *C 11.455 49.445 *L 0.00273 *D INVX1
*I *966:Q O *C 5.945 10.875 *L 0 *D SDFFRHQX4
*I *963:SI I *C 6.235 5.655 *L 0.00268 *D SDFFRHQX4

*CAP
1 *144:1 2.16478e-05
2 *144:2 2.16478e-05
3 *144:3 0.000329966
4 *144:4 0.000329966
5 *144:5 0.00242742
6 *144:6 0.00240577
7 *144:7 2.16478e-05
8 *144:9 0.000329966
9 *144:10 0.000329966
10 *144:11 0.000541196
11 *144:12 0.000671083
12 *144:13 3.88195e-05
13 *144:14 0.000129887
14 *144:15 3.88195e-05
15 *144:16 1.94098e-05
16 *144:18 1.94098e-05
17 *144:20 0.000259774
18 *144:21 0.000259774

*RES
1 *144:21 *963:SI 1.4
2 *144:20 *144:21 1.49146
3 *144:18 *144:20 1.4
4 *144:17 *966:Q 1.4
5 *144:16 *144:18 0.124289
6 *144:15 *144:17 1.4
7 *144:14 *144:16 1.4
8 *144:13 *144:15 0.248578
9 *144:12 *144:14 0.745729
10 *144:12 *144:13 1.4
11 *144:11 *144:12 3.1072
12 *144:10 *144:11 1.4
13 *144:9 *144:10 2.11291
14 *144:7 *144:9 1.4
15 *144:6 *681:A 1.4
16 *144:5 *144:7 0.124288
17 *144:5 *144:6 13.2989
18 *144:4 *144:5 1.4
19 *144:3 *144:4 2.11291
20 *144:2 *144:3 1.4
21 *144:1 *144:2 0.124288
22 *854:A *144:1 1.4
*END

*D_NET *145 0.00800215

*CONN
*I *968:SI I *C 5.945 12.905 *L 0.00268 *D SDFFRHQX4
*I *965:Q O *C 15.515 16.095 *L 0 *D SDFFRHQX4
*I *854:B I *C 16.675 18.415 *L 0.00171 *D NOR2XL
*I *678:A I *C 9.715 49.445 *L 0.00273 *D INVX1

*CAP
1 *145:2 0.000679341
2 *145:3 0.000679341
3 *145:4 0.000108239
4 *145:5 0.000108239
5 *145:6 3.88195e-05
6 *145:7 3.88195e-05
7 *145:8 0.000129887
8 *145:9 0.00030307
9 *145:10 0.000238126
10 *145:12 6.49435e-05
11 *145:13 7.7639e-05
12 *145:14 0.000388195
13 *145:15 7.7639e-05
14 *145:16 0.000388195
15 *145:18 0.00234083
16 *145:20 0.00234083

*RES
1 *145:20 *678:A 1.4
2 *145:18 *145:20 12.926
3 *145:17 *854:B 1.4
4 *145:16 *145:18 1.4
5 *145:15 *145:17 1.4
6 *145:14 *145:16 2.48577
7 *145:13 *145:15 0.497155
8 *145:12 *145:14 1.4
9 *145:10 *145:13 1.4
10 *145:10 *145:12 0.372864
11 *145:9 *965:Q 1.4
12 *145:9 *145:10 0.994305
13 *145:8 *145:9 0.745729
14 *145:7 *145:8 1.4
15 *145:6 *145:7 0.248578
16 *145:5 *145:6 1.4
17 *145:4 *145:5 0.621441
18 *145:3 *145:4 1.4
19 *145:2 *145:3 4.35011
20 *145:1 *145:2 1.4
21 *968:SI *145:1 1.4
*END

*D_NET *146 0.00332091

*CONN
*I *677:A I *C 16.965 31.755 *L 0.00273 *D INVX1
*I *850:AN I *C 16.675 21.315 *L 0.00178 *D NAND2BX1
*I *968:Q O *C 15.805 12.905 *L 0 *D SDFFRHQX4
*I *966:SI I *C 15.805 10.875 *L 0.00268 *D SDFFRHQX4

*CAP
1 *146:2 2.1912e-05
2 *146:3 2.1912e-05
3 *146:4 0.000800991
4 *146:5 0.00132054
5 *146:7 0.000519548
6 *146:8 5.82293e-05
7 *146:9 5.82293e-05
8 *146:10 0.000108239
9 *146:11 0.000259774
10 *146:13 0.000151535

*RES
1 *146:13 *966:SI 1.4
2 *146:11 *146:13 0.870017
3 *146:11 *968:Q 1.4
4 *146:10 *146:11 0.621441
5 *146:9 *146:10 1.4
6 *146:8 *146:9 0.372866
7 *146:7 *146:8 1.4
8 *146:5 *146:7 2.98292
9 *146:5 *850:AN 1.4
10 *146:4 *146:5 4.47438
11 *146:3 *146:4 1.4
12 *146:2 *146:3 0.124283
13 *146:1 *146:2 1.4
14 *677:A *146:1 1.4
*END

*D_NET *147 0.00579613

*CONN
*I *866:D I *C 16.095 83.955 *L 0.00278 *D SDFFRHQX8
*I *822:SI I *C 23.345 54.955 *L 0.00276 *D SDFFRHQX1
*I *668:Q O *C 17.255 52.925 *L 0 *D SDFFRHQX1

*CAP
1 *147:1 1.79579e-05
2 *147:2 1.79579e-05
3 *147:3 7.28068e-05
4 *147:4 7.28068e-05
5 *147:5 0.00209961
6 *147:6 0.00209961
7 *147:7 8.18689e-05
8 *147:8 0.000429812
9 *147:9 0.000347943
10 *147:10 0.000174236
11 *147:11 2.17795e-05
12 *147:12 0.000174236
13 *147:13 2.17795e-05
14 *147:14 8.18689e-05
15 *147:16 8.18689e-05

*RES
1 *147:17 *668:Q 1.4
2 *147:16 *147:17 1.4
3 *147:14 *147:16 0.497132
4 *147:13 *822:SI 1.4
5 *147:12 *147:14 1.4
6 *147:11 *147:13 0.124283
7 *147:10 *147:12 0.994261
8 *147:9 *147:11 1.4
9 *147:8 *147:10 1.4
10 *147:8 *147:9 2.11281
11 *147:7 *147:8 0.497132
12 *147:6 *147:7 1.4
13 *147:5 *147:6 12.4283
14 *147:4 *147:5 1.4
15 *147:3 *147:4 0.497134
16 *147:2 *147:3 1.4
17 *147:1 *147:2 0.124284
18 *866:D *147:1 1.4
*END

*D_NET *148 0.00708608

*CONN
*I *873:D I *C 7.395 80.765 *L 0.00278 *D SDFFRHQX8
*I *668:SI I *C 25.665 52.345 *L 0.00276 *D SDFFRHQX1
*I *667:Q O *C 23.055 49.155 *L 0 *D SDFFRHQX1

*CAP
1 *148:2 0.000964689
2 *148:3 0.000964689
3 *148:4 0.00210191
4 *148:5 0.00235177
5 *148:6 0.000204672
6 *148:7 0.00024986
7 *148:8 0.000204672
8 *148:9 2.1912e-05
9 *148:11 2.1912e-05

*RES
1 *148:13 *667:Q 1.4
2 *148:11 *148:13 1.4
3 *148:10 *668:SI 1.4
4 *148:9 *148:11 0.124283
5 *148:8 *148:10 1.4
6 *148:7 *148:9 1.4
7 *148:6 *148:8 1.24283
8 *148:5 *148:7 1.36717
9 *148:5 *148:6 1.4
10 *148:4 *148:5 12.1797
11 *148:3 *148:4 1.4
12 *148:2 *148:3 6.58702
13 *148:1 *148:2 1.4
14 *873:D *148:1 1.4
*END

*D_NET *149 0.00380589

*CONN
*I *670:SI I *C 13.195 57.565 *L 0.00276 *D SDFFRHQX1
*I *671:Q O *C 20.445 63.365 *L 0 *D SDFFRHQX1
*I *874:D I *C 15.515 75.545 *L 0.00278 *D SDFFRHQX8

*CAP
1 *149:2 2.04672e-05
2 *149:3 2.04672e-05
3 *149:4 0.000326692
4 *149:5 0.000326692
5 *149:6 0.000184205
6 *149:7 0.000184205
7 *149:8 0.000108897
8 *149:9 0.00102364
9 *149:10 0.000307008
10 *149:11 0.000914738
11 *149:12 0.000307008
12 *149:13 4.09345e-05
13 *149:15 4.09345e-05

*RES
1 *149:17 *874:D 1.4
2 *149:15 *149:17 1.4
3 *149:14 *671:Q 1.4
4 *149:13 *149:15 0.248566
5 *149:12 *149:14 1.4
6 *149:11 *149:13 1.4
7 *149:10 *149:12 1.86425
8 *149:9 *149:11 5.21987
9 *149:9 *149:10 1.4
10 *149:8 *149:9 0.621413
11 *149:7 *149:8 1.4
12 *149:6 *149:7 1.11855
13 *149:5 *149:6 1.4
14 *149:4 *149:5 1.86424
15 *149:3 *149:4 1.4
16 *149:2 *149:3 0.124283
17 *149:1 *149:2 1.4
18 *670:SI *149:1 1.4
*END

*D_NET *150 0.0036962

*CONN
*I *875:D I *C 6.525 73.515 *L 0.00278 *D SDFFRHQX8
*I *666:Q O *C 11.455 54.375 *L 0 *D SDFFRHQX1
*I *671:SI I *C 12.035 62.785 *L 0.00276 *D SDFFRHQX1

*CAP
1 *150:1 0.000740502
2 *150:2 0.000740502
3 *150:3 0.000347943
4 *150:4 0.000347943
5 *150:5 8.71179e-05
6 *150:6 0.000696943
7 *150:7 4.09345e-05
8 *150:8 0.000609825
9 *150:9 4.09345e-05
10 *150:11 2.17795e-05
11 *150:12 2.17795e-05

*RES
1 *150:12 *671:SI 1.4
2 *150:11 *150:12 0.124283
3 *150:9 *150:11 1.4
4 *150:8 *666:Q 1.4
5 *150:7 *150:9 0.248566
6 *150:6 *150:8 3.47992
7 *150:6 *150:7 1.4
8 *150:5 *150:6 0.497131
9 *150:4 *150:5 1.4
10 *150:3 *150:4 2.11281
11 *150:2 *150:3 1.4
12 *150:1 *150:2 4.22561
13 *875:D *150:1 1.4
*END

*D_NET *151 0.00296358

*CONN
*I *666:SI I *C 19.865 54.955 *L 0.00276 *D SDFFRHQX1
*I *672:Q O *C 15.515 58.145 *L 0 *D SDFFRHQX1
*I *867:D I *C 16.385 70.325 *L 0.00278 *D SDFFRHQX8

*CAP
1 *151:1 0.000108897
2 *151:2 0.000108897
3 *151:3 0.00022514
4 *151:4 0.00022514
5 *151:5 0.000130677
6 *151:6 0.00104541
7 *151:7 0.000914738
8 *151:8 8.18689e-05
9 *151:9 2.04672e-05
10 *151:10 8.18689e-05
11 *151:11 2.04672e-05

*RES
1 *151:13 *867:D 1.4
2 *151:12 *672:Q 1.4
3 *151:11 *151:13 1.4
4 *151:10 *151:12 1.4
5 *151:9 *151:11 0.124283
6 *151:8 *151:10 0.497132
7 *151:7 *151:9 1.4
8 *151:6 *151:8 1.4
9 *151:6 *151:7 5.21987
10 *151:5 *151:6 0.745696
11 *151:4 *151:5 1.4
12 *151:3 *151:4 1.36711
13 *151:2 *151:3 1.4
14 *151:1 *151:2 0.621413
15 *666:SI *151:1 1.4
*END

*D_NET *152 0.00280509

*CONN
*I *865:D I *C 7.395 68.295 *L 0.00278 *D SDFFRHQX8
*I *670:Q O *C 4.785 58.145 *L 0 *D SDFFRHQX1
*I *673:SI I *C 6.235 52.345 *L 0.00276 *D SDFFRHQX1

*CAP
1 *152:1 0.000740502
2 *152:2 0.000740502
3 *152:3 6.14017e-05
4 *152:4 6.14017e-05
5 *152:5 2.17795e-05
6 *152:6 0.000457369
7 *152:7 0.000122803
8 *152:8 0.00043559
9 *152:9 0.000122803
10 *152:10 2.04672e-05
11 *152:12 2.04672e-05

*RES
1 *152:14 *673:SI 1.4
2 *152:12 *152:14 1.4
3 *152:11 *670:Q 1.4
4 *152:10 *152:12 0.124283
5 *152:9 *152:11 1.4
6 *152:8 *152:10 1.4
7 *152:7 *152:9 0.745699
8 *152:6 *152:8 2.48565
9 *152:6 *152:7 1.4
10 *152:5 *152:6 0.124283
11 *152:4 *152:5 1.4
12 *152:3 *152:4 0.372849
13 *152:2 *152:3 1.4
14 *152:1 *152:2 4.22561
15 *865:D *152:1 1.4
*END

*D_NET *153 0.0032418

*CONN
*I *876:SI I *C 14.645 47.415 *L 0.00168 *D SDFFRX1
*I *673:Q O *C 14.645 52.925 *L 0 *D SDFFRHQX1
*I *871:D I *C 16.385 65.105 *L 0.00278 *D SDFFRHQX8

*CAP
1 *153:2 0.00010956
2 *153:3 0.00010956
3 *153:4 0.000273109
4 *153:5 0.000273109
5 *153:6 4.3824e-05
6 *153:7 4.3824e-05
7 *153:8 0.000156864
8 *153:9 0.0010716
9 *153:10 0.000914738
10 *153:11 6.14017e-05
11 *153:12 6.14017e-05
12 *153:13 6.14017e-05
13 *153:14 6.14017e-05

*RES
1 *153:16 *871:D 1.4
2 *153:15 *673:Q 1.4
3 *153:14 *153:16 1.4
4 *153:13 *153:15 1.4
5 *153:12 *153:14 0.372849
6 *153:11 *153:13 0.372849
7 *153:10 *153:12 1.4
8 *153:9 *153:11 1.4
9 *153:9 *153:10 5.21987
10 *153:8 *153:9 0.870006
11 *153:7 *153:8 1.4
12 *153:6 *153:7 0.248566
13 *153:5 *153:6 1.4
14 *153:4 *153:5 1.49146
15 *153:3 *153:4 1.4
16 *153:2 *153:3 0.621415
17 *153:1 *153:2 1.4
18 *876:SI *153:1 1.4
*END

*D_NET *154 0.00494977

*CONN
*I *525:SI I *C 17.255 36.685 *L 0.00276 *D SDFFRHQX1
*I *872:D I *C 16.385 59.885 *L 0.00278 *D SDFFRHQX8
*I *669:Q O *C 8.555 42.485 *L 0 *D SDFFRHQX1

*CAP
1 *154:1 0.000318627
2 *154:2 0.000318627
3 *154:3 6.5736e-05
4 *154:4 6.5736e-05
5 *154:5 0.000159313
6 *154:6 0.00147614
7 *154:7 0.00131683
8 *154:8 0.000591624
9 *154:10 0.000591624
10 *154:11 2.2759e-05
11 *154:12 2.2759e-05

*RES
1 *154:12 *669:Q 1.4
2 *154:11 *154:12 0.124289
3 *154:10 *154:11 1.4
4 *154:8 *154:10 3.35564
5 *154:7 *872:D 1.4
6 *154:6 *154:8 1.4
7 *154:6 *154:7 7.33288
8 *154:5 *154:6 0.870021
9 *154:4 *154:5 1.4
10 *154:3 *154:4 0.372849
11 *154:2 *154:3 1.4
12 *154:1 *154:2 1.74004
13 *525:SI *154:1 1.4
*END

*D_NET *155 0.00445295

*CONN
*I *723:A I *C 67.715 39.005 *L 0.00263 *D NOR2X1
*I *773:B I *C 69.745 39.295 *L 0.00165 *D NOR3BXL
*I *701:B0 I *C 73.225 39.005 *L 0.0028 *D OAI21X1
*I *917:Q O *C 81.635 39.005 *L 0 *D SDFFRHQX4
*I *762:A I *C 70.905 42.195 *L 0.00273 *D CLKINVX1
*I *947:SI I *C 90.625 36.975 *L 0.00268 *D SDFFRHQX4

*CAP
1 *155:1 2.33434e-05
2 *155:2 2.33434e-05
3 *155:3 0.000154042
4 *155:4 0.000154042
5 *155:5 4.66869e-05
6 *155:6 4.66869e-05
7 *155:7 2.20059e-05
8 *155:9 0.000264071
9 *155:10 0.000860591
10 *155:11 0.000233434
11 *155:12 0.000618525
12 *155:13 2.33434e-05
13 *155:14 0.000233434
14 *155:15 2.09736e-05
15 *155:16 2.33434e-05
16 *155:17 6.60178e-05
17 *155:18 2.09736e-05
18 *155:20 6.60178e-05
19 *155:21 0.000629222
20 *155:24 0.000629222
21 *155:26 0.000146815
22 *155:27 0.000146815

*RES
1 *155:27 *947:SI 1.4
2 *155:26 *155:27 0.869982
3 *155:24 *155:26 1.4
4 *155:23 *762:A 1.4
5 *155:21 *155:24 3.85294
6 *155:20 *155:23 1.4
7 *155:18 *917:Q 1.4
8 *155:18 *155:21 1.4
9 *155:17 *155:20 0.372866
10 *155:16 *701:B0 1.4
11 *155:15 *155:18 0.124283
12 *155:14 *155:17 1.4
13 *155:13 *155:16 0.124283
14 *155:12 *155:15 1.4
15 *155:11 *155:14 1.24283
16 *155:10 *155:13 1.4
17 *155:10 *155:12 3.60437
18 *155:9 *155:11 1.4
19 *155:9 *155:10 1.36718
20 *155:7 *155:9 0.124289
21 *155:6 *773:B 1.4
22 *155:6 *155:7 1.4
23 *155:5 *155:6 0.248565
24 *155:4 *155:5 1.4
25 *155:3 *155:4 0.870021
26 *155:2 *155:3 1.4
27 *155:1 *155:2 0.124283
28 *723:A *155:1 1.4
*END

*D_NET *156 0.00468608

*CONN
*I *761:A I *C 63.365 42.195 *L 0.00273 *D CLKINVX1
*I *694:A0 I *C 64.815 41.905 *L 0.00261 *D AOI31X1
*I *701:A0 I *C 74.095 39.005 *L 0.00271 *D OAI21X1
*I *698:A0 I *C 74.675 42.195 *L 0.00265 *D AOI21X1
*I *947:Q O *C 80.765 36.975 *L 0 *D SDFFRHQX4
*I *919:SI I *C 80.185 33.785 *L 0.00268 *D SDFFRHQX4

*CAP
1 *156:1 2.33434e-05
2 *156:2 2.33434e-05
3 *156:3 0.00011003
4 *156:4 0.00081422
5 *156:5 0.00070419
6 *156:7 0.000280121
7 *156:9 4.66869e-05
8 *156:10 0.000233434
9 *156:11 4.40119e-05
10 *156:13 0.000430722
11 *156:14 0.000386711
12 *156:15 2.33434e-05
13 *156:16 0.000398499
14 *156:17 2.33434e-05
15 *156:18 0.000398499
16 *156:20 6.08925e-05
17 *156:21 6.08925e-05
18 *156:22 0.000125842
19 *156:24 0.000125842
20 *156:25 2.02975e-05
21 *156:26 2.02975e-05
22 *156:27 0.000104868
23 *156:28 0.000104868
24 *156:29 6.08925e-05
25 *156:30 6.08925e-05

*RES
1 *156:31 *919:SI 1.4
2 *156:30 *156:31 1.4
3 *156:29 *156:30 0.372865
4 *156:28 *156:29 1.4
5 *156:27 *156:28 0.621415
6 *156:26 *156:27 1.4
7 *156:25 *156:26 0.124288
8 *156:24 *156:25 1.4
9 *156:22 *156:24 0.745698
10 *156:22 *947:Q 1.4
11 *156:21 *156:22 1.4
12 *156:20 *156:21 0.372865
13 *156:18 *156:20 1.4
14 *156:17 *698:A0 1.4
15 *156:16 *156:18 2.36138
16 *156:15 *156:17 0.124283
17 *156:14 *156:16 1.4
18 *156:13 *156:15 1.4
19 *156:13 *156:14 2.2372
20 *156:11 *156:13 0.248578
21 *156:10 *701:A0 1.4
22 *156:9 *156:11 1.4
23 *156:7 *156:10 1.24283
24 *156:7 *156:9 0.248565
25 *156:6 *694:A0 1.4
26 *156:5 *156:7 1.4
27 *156:4 *156:6 1.4
28 *156:4 *156:5 3.97724
29 *156:3 *156:4 0.621444
30 *156:2 *156:3 1.4
31 *156:1 *156:2 0.124283
32 *761:A *156:1 1.4
*END

*D_NET *157 0.00733039

*CONN
*I *727:A I *C 71.485 31.755 *L 0.00267 *D NAND2X1
*I *704:A I *C 69.455 31.755 *L 0.00162 *D NOR2XL
*I *706:B0 I *C 69.455 33.785 *L 0.00272 *D OAI32X1
*I *710:A I *C 66.555 28.855 *L 0.00157 *D NAND2XL
*I *915:Q O *C 66.555 26.535 *L 0 *D SDFFRHQX4
*I *711:A I *C 65.975 28.565 *L 0.00263 *D NOR2X1
*I *941:SI I *C 32.335 26.535 *L 0.00268 *D SDFFRHQX4

*CAP
1 *157:2 8.80238e-05
2 *157:3 0.000154042
3 *157:4 0.000286077
4 *157:5 0.000163404
5 *157:6 0.000220059
6 *157:7 0.000163404
7 *157:9 0.000233434
8 *157:11 0.000256778
9 *157:13 0.000186747
10 *157:14 4.40119e-05
11 *157:15 0.000163404
12 *157:16 4.40119e-05
13 *157:17 0.0026635
14 *157:20 0.0026635

*RES
1 *157:22 *941:SI 1.4
2 *157:20 *157:22 1.4
3 *157:19 *711:A 1.4
4 *157:17 *157:20 14.6661
5 *157:16 *157:19 1.4
6 *157:15 *915:Q 1.4
7 *157:15 *157:17 1.4
8 *157:14 *157:16 0.248578
9 *157:13 *157:15 0.869979
10 *157:13 *157:14 1.4
11 *157:11 *157:13 0.124283
12 *157:11 *710:A 1.4
13 *157:9 *157:11 1.24283
14 *157:7 *706:B0 1.4
15 *157:6 *157:9 1.4
16 *157:5 *704:A 1.4
17 *157:5 *157:7 0.869979
18 *157:4 *157:6 1.24289
19 *157:4 *157:5 1.4
20 *157:3 *157:4 0.372866
21 *157:2 *157:3 0.497155
22 *157:1 *157:2 1.4
23 *727:A *157:1 1.4
*END

*D_NET *158 0.00413441

*CONN
*I *706:A0 I *C 71.195 34.075 *L 0.00257 *D OAI32X1
*I *709:A0N I *C 74.385 33.785 *L 0.00173 *D OAI2BB1X1
*I *717:AN I *C 70.325 28.855 *L 0.00174 *D NOR2BX1
*I *764:B I *C 72.355 28.565 *L 0.00175 *D NOR2BXL
*I *914:Q O *C 67.425 23.345 *L 0 *D SDFFRHQX4
*I *915:SI I *C 76.415 26.535 *L 0.00268 *D SDFFRHQX4

*CAP
1 *158:1 2.33434e-05
2 *158:2 2.33434e-05
3 *158:3 0.000286077
4 *158:4 0.000242065
5 *158:5 4.40119e-05
6 *158:7 0.000303465
7 *158:9 0.000303465
8 *158:10 2.20059e-05
9 *158:11 2.20059e-05
10 *158:12 9.33737e-05
11 *158:13 9.33737e-05
12 *158:14 4.40119e-05
13 *158:16 0.000154042
14 *158:17 0.000242065
15 *158:18 0.00042434
16 *158:19 0.000132036
17 *158:20 2.33434e-05
18 *158:21 0.00042434
19 *158:22 0.000186747
20 *158:23 2.33434e-05
21 *158:24 0.000242386
22 *158:25 0.000186747
23 *158:27 0.000242386
24 *158:28 0.000176048
25 *158:30 0.000176048

*RES
1 *158:32 *915:SI 1.4
2 *158:30 *158:32 1.4
3 *158:29 *914:Q 1.4
4 *158:28 *158:30 0.99431
5 *158:27 *158:29 1.4
6 *158:25 *158:28 1.4
7 *158:24 *158:27 1.49146
8 *158:23 *764:B 1.4
9 *158:22 *158:25 0.994261
10 *158:21 *158:24 1.4
11 *158:20 *158:23 0.124283
12 *158:19 *158:22 1.4
13 *158:18 *158:21 2.36137
14 *158:17 *158:20 1.4
15 *158:17 *158:19 0.745732
16 *158:16 *158:18 1.4
17 *158:16 *158:17 0.621444
18 *158:14 *158:16 0.248578
19 *158:13 *717:AN 1.4
20 *158:13 *158:14 1.4
21 *158:12 *158:13 0.497131
22 *158:11 *158:12 1.4
23 *158:10 *158:11 0.124289
24 *158:9 *158:10 1.4
25 *158:7 *158:9 1.61567
26 *158:6 *709:A0N 1.4
27 *158:5 *158:7 1.4
28 *158:4 *158:6 1.4
29 *158:3 *158:5 0.248578
30 *158:3 *158:4 1.36718
31 *158:2 *158:3 1.4
32 *158:1 *158:2 0.124283
33 *706:A0 *158:1 1.4
*END

*D_NET *159 0.00430918

*CONN
*I *728:A I *C 78.155 36.685 *L 0.00157 *D NAND2XL
*I *720:A0 I *C 76.995 31.755 *L 0.00271 *D OAI21X1
*I *712:A0 I *C 76.995 28.855 *L 0.00262 *D OAI221X1
*I *722:A0 I *C 76.125 28.855 *L 0.00259 *D AOI32X1
*I *769:B0 I *C 79.315 26.535 *L 0.00175 *D AO21X1
*I *913:Q O *C 79.605 23.345 *L 0 *D SDFFRHQX4
*I *912:SI I *C 89.755 21.315 *L 0.00268 *D SDFFRHQX4

*CAP
1 *159:2 0.00011003
2 *159:3 0.00011003
3 *159:4 0.000396838
4 *159:5 0.000630273
5 *159:6 2.20059e-05
6 *159:7 0.000233434
7 *159:8 2.20059e-05
8 *159:9 6.60178e-05
9 *159:11 0.000192074
10 *159:12 4.40119e-05
11 *159:14 0.000170068
12 *159:17 0.000167789
13 *159:20 0.000281123
14 *159:22 0.000113334
15 *159:23 1.82429e-05
16 *159:24 1.82429e-05
17 *159:25 9.09704e-05
18 *159:26 0.000218329
19 *159:28 0.000127359
20 *159:29 0.000638501
21 *159:30 0.000638501

*RES
1 *159:31 *912:SI 1.4
2 *159:30 *159:31 1.4
3 *159:29 *159:30 4.34992
4 *159:28 *159:29 1.4
5 *159:26 *159:28 0.869984
6 *159:26 *913:Q 1.4
7 *159:25 *159:26 0.621417
8 *159:24 *159:25 1.4
9 *159:23 *159:24 0.124283
10 *159:22 *159:23 1.4
11 *159:20 *159:22 0.7457
12 *159:20 *769:B0 1.4
13 *159:17 *159:20 0.994265
14 *159:16 *722:A0 1.4
15 *159:15 *712:A0 1.4
16 *159:14 *159:17 1.4
17 *159:12 *159:16 1.4
18 *159:11 *159:15 1.4
19 *159:11 *159:14 0.994308
20 *159:10 *720:A0 1.4
21 *159:9 *159:12 0.248578
22 *159:9 *159:11 0.124289
23 *159:8 *159:10 1.4
24 *159:7 *159:9 1.4
25 *159:6 *159:8 0.124289
26 *159:5 *159:7 1.24283
27 *159:5 *159:6 1.4
28 *159:4 *159:5 2.11281
29 *159:3 *159:4 1.4
30 *159:2 *159:3 0.621444
31 *159:1 *159:2 1.4
32 *728:A *159:1 1.4
*END

*D_NET *160 0.00247334

*CONN
*I *722:A1 I *C 75.835 28.275 *L 0.00274 *D AOI32X1
*I *712:B0 I *C 78.445 28.855 *L 0.00274 *D OAI221X1
*I *770:AN I *C 80.765 28.565 *L 0.00178 *D NAND2BX1
*I *769:A0 I *C 80.185 26.535 *L 0.00155 *D AO21X1
*I *721:A0 I *C 81.925 28.565 *L 0.00158 *D AOI21XL
*I *912:Q O *C 79.895 21.315 *L 0 *D SDFFRHQX4
*I *911:SI I *C 79.025 18.125 *L 0.00268 *D SDFFRHQX4

*CAP
1 *160:1 2.33434e-05
2 *160:2 2.33434e-05
3 *160:3 0.000197199
4 *160:4 0.000318984
5 *160:5 0.00016238
6 *160:6 2.09736e-05
7 *160:7 0.000121785
8 *160:8 0.000146815
9 *160:9 2.09736e-05
10 *160:10 8.11899e-05
11 *160:12 0.000478478
12 *160:17 0.000331663
13 *160:19 1.82429e-05
14 *160:20 1.82429e-05
15 *160:21 0.000200135
16 *160:23 0.000200135
17 *160:24 5.47287e-05
18 *160:25 5.47287e-05

*RES
1 *160:26 *911:SI 1.4
2 *160:25 *160:26 1.4
3 *160:24 *160:25 0.37285
4 *160:23 *160:24 1.4
5 *160:21 *160:23 1.36712
6 *160:21 *912:Q 1.4
7 *160:20 *160:21 1.4
8 *160:19 *160:20 0.124283
9 *160:17 *160:19 1.4
10 *160:14 *721:A0 1.4
11 *160:12 *160:17 2.2371
12 *160:12 *769:A0 1.4
13 *160:11 *770:AN 1.4
14 *160:10 *160:14 1.4
15 *160:9 *712:B0 1.4
16 *160:8 *160:12 0.869982
17 *160:7 *160:11 1.4
18 *160:7 *160:10 0.497153
19 *160:6 *160:9 0.124283
20 *160:5 *160:8 1.4
21 *160:5 *160:7 0.248577
22 *160:4 *160:6 1.4
23 *160:4 *160:5 0.74573
24 *160:3 *160:4 1.1186
25 *160:2 *160:3 1.4
26 *160:1 *160:2 0.124283
27 *722:A1 *160:1 1.4
*END

*D_NET *161 0.00214087

*CONN
*I *752:B I *C 89.465 31.465 *L 0.00167 *D NAND2XL
*I *753:A I *C 89.465 28.565 *L 0.00162 *D NOR2XL
*I *911:Q O *C 88.885 18.125 *L 0 *D SDFFRHQX4
*I *910:SI I *C 89.175 16.095 *L 0.00268 *D SDFFRHQX4

*CAP
1 *161:1 0.000209736
2 *161:2 0.000797379
3 *161:4 0.000587643
4 *161:5 3.64858e-05
5 *161:6 3.64858e-05
6 *161:7 9.09704e-05
7 *161:8 0.000218329
8 *161:10 0.000127359
9 *161:11 1.82429e-05
10 *161:12 1.82429e-05

*RES
1 *161:13 *910:SI 1.4
2 *161:12 *161:13 1.4
3 *161:11 *161:12 0.124283
4 *161:10 *161:11 1.4
5 *161:8 *161:10 0.869984
6 *161:8 *911:Q 1.4
7 *161:7 *161:8 0.621417
8 *161:6 *161:7 1.4
9 *161:5 *161:6 0.248567
10 *161:4 *161:5 1.4
11 *161:2 *161:4 3.85278
12 *161:2 *753:A 1.4
13 *161:1 *161:2 1.24283
14 *752:B *161:1 1.4
*END

*D_NET *162 0.0036375

*CONN
*I *756:A I *C 85.405 26.535 *L 0.00273 *D CLKINVX1
*I *742:A I *C 82.795 26.245 *L 0.0017 *D MXI2XL
*I *910:Q O *C 79.315 16.095 *L 0 *D SDFFRHQX4
*I *935:SI I *C 88.305 10.875 *L 0.00268 *D SDFFRHQX4

*CAP
1 *162:1 4.19473e-05
2 *162:2 4.19473e-05
3 *162:3 0.00016238
4 *162:4 0.00016238
5 *162:5 6.29209e-05
6 *162:6 0.000701104
7 *162:7 2.02975e-05
8 *162:8 0.000729153
9 *162:9 2.02975e-05
10 *162:10 0.000237158
11 *162:11 9.09704e-05
12 *162:13 0.000237158
13 *162:14 0.000328372
14 *162:17 0.000328372
15 *162:19 0.000236523
16 *162:20 0.000236523

*RES
1 *162:20 *935:SI 1.4
2 *162:19 *162:20 1.61568
3 *162:17 *162:19 1.4
4 *162:16 *910:Q 1.4
5 *162:14 *162:17 2.2371
6 *162:13 *162:16 1.4
7 *162:12 *742:A 1.4
8 *162:11 *162:14 1.4
9 *162:10 *162:13 1.61568
10 *162:9 *162:12 1.4
11 *162:8 *162:11 0.621417
12 *162:8 *162:10 1.4
13 *162:7 *162:9 0.124288
14 *162:6 *162:8 4.34992
15 *162:6 *162:7 1.4
16 *162:5 *162:6 0.372849
17 *162:4 *162:5 1.4
18 *162:3 *162:4 0.994307
19 *162:2 *162:3 1.4
20 *162:1 *162:2 0.248566
21 *756:A *162:1 1.4
*END

*D_NET *163 0.00476032

*CONN
*I *767:B I *C 71.195 52.345 *L 0.00272 *D NOR3BX1
*I *707:AN I *C 73.805 52.635 *L 0.00178 *D NAND2BX1
*I *729:A0 I *C 69.745 52.635 *L 0.00265 *D AOI21X1
*I *923:SI I *C 89.755 63.075 *L 0.00268 *D SDFFRHQX4
*I *918:Q O *C 79.895 65.105 *L 0 *D SDFFRHQX4

*CAP
1 *163:1 2.22436e-05
2 *163:2 2.22436e-05
3 *163:3 0.000310944
4 *163:4 0.00065298
5 *163:5 0.000111052
6 *163:6 0.000453087
7 *163:9 0.000704918
8 *163:12 0.000704918
9 *163:13 7.91473e-05
10 *163:14 0.000672752
11 *163:15 0.000137067
12 *163:16 0.000593605
13 *163:17 0.000137067
14 *163:19 7.91473e-05
15 *163:21 7.91473e-05

*RES
1 *163:22 *918:Q 1.4
2 *163:21 *163:22 1.4
3 *163:19 *163:21 0.497131
4 *163:18 *923:SI 1.4
5 *163:17 *163:19 1.4
6 *163:16 *163:18 1.4
7 *163:15 *163:17 0.870021
8 *163:14 *163:16 3.72848
9 *163:14 *163:15 1.4
10 *163:13 *163:14 0.497131
11 *163:12 *163:13 1.4
12 *163:9 *163:12 4.4744
13 *163:8 *729:A0 1.4
14 *163:7 *707:AN 1.4
15 *163:6 *163:9 1.4
16 *163:5 *163:8 1.4
17 *163:4 *163:7 1.4
18 *163:4 *163:6 2.60994
19 *163:3 *163:5 0.621415
20 *163:3 *163:4 1.11855
21 *163:2 *163:3 1.4
22 *163:1 *163:2 0.124283
23 *767:B *163:1 1.4
*END

*D_NET *164 0.00480686

*CONN
*I *758:A I *C 67.125 52.4075 *L 0.00163 *D INVXL
*I *741:A I *C 69.165 54.665 *L 0.00259 *D NOR3X1
*I *715:A I *C 72.065 54.375 *L 0.00152 *D NAND4XL
*I *714:A0 I *C 76.125 52.635 *L 0.00265 *D AOI21X1
*I *945:SI I *C 79.895 57.855 *L 0.00268 *D SDFFRHQX4
*I *716:A I *C 78.155 49.445 *L 0.00273 *D NOR4X1
*I *923:Q O *C 79.895 63.075 *L 0 *D SDFFRHQX4

*CAP
1 *164:1 7.67022e-07
2 *164:2 5.75267e-06
3 *164:3 4.98564e-06
4 *164:4 2.22103e-05
5 *164:5 2.22103e-05
6 *164:6 0.000133462
7 *164:7 0.000133462
8 *164:8 0.000133262
9 *164:9 0.000355365
10 *164:10 0.000355365
11 *164:11 4.44873e-05
12 *164:12 0.000133262
13 *164:13 2.22436e-05
14 *164:14 4.44873e-05
15 *164:15 8.89745e-05
16 *164:16 2.22436e-05
17 *164:18 8.89745e-05
18 *164:20 0.000177683
19 *164:21 0.000333155
20 *164:22 0.000176471
21 *164:23 2.22436e-05
22 *164:24 0.000400385
23 *164:25 2.09986e-05
24 *164:26 2.22436e-05
25 *164:27 0.000400385
26 *164:28 0.000248202
27 *164:30 0.000119933
28 *164:31 0.000248202
29 *164:32 0.000159506
30 *164:33 2.11517e-05
31 *164:34 3.95736e-05
32 *164:35 1.9581e-05
33 *164:36 2.11517e-05
34 *164:37 0.000332878
35 *164:38 1.9581e-05
36 *164:40 0.000332878
37 *164:43 3.95736e-05
38 *164:44 3.95736e-05

*RES
1 *164:45 *923:Q 1.4
2 *164:44 *164:45 1.4
3 *164:43 *164:44 0.248565
4 *164:40 *164:43 1.4
5 *164:39 *716:A 1.4
6 *164:38 *945:SI 1.4
7 *164:37 *164:40 2.11291
8 *164:36 *164:39 1.4
9 *164:35 *164:38 0.124289
10 *164:34 *164:37 1.4
11 *164:33 *164:36 0.124289
12 *164:32 *164:35 1.4
13 *164:32 *164:34 0.248565
14 *164:31 *164:33 1.4
15 *164:30 *164:32 0.745696
16 *164:28 *164:31 1.49141
17 *164:27 *164:30 1.4
18 *164:26 *714:A0 1.4
19 *164:25 *164:28 1.4
20 *164:24 *164:27 2.23709
21 *164:23 *164:26 0.124283
22 *164:22 *164:25 0.124283
23 *164:22 *164:24 1.4
24 *164:21 *164:23 1.4
25 *164:21 *164:22 0.869981
26 *164:20 *164:21 0.994264
27 *164:18 *164:20 1.4
28 *164:16 *715:A 1.4
29 *164:15 *164:18 0.497131
30 *164:14 *741:A 1.4
31 *164:13 *164:16 0.124283
32 *164:12 *164:15 1.4
33 *164:11 *164:14 0.248565
34 *164:10 *164:13 1.4
35 *164:10 *164:12 0.745698
36 *164:9 *164:11 1.4
37 *164:9 *164:10 1.24283
38 *164:8 *164:9 0.745698
39 *164:7 *164:8 1.4
40 *164:6 *164:7 0.745696
41 *164:5 *164:6 1.4
42 *164:4 *164:5 0.124283
43 *164:3 *164:4 1.4
44 *164:2 *164:3 0.0278565
45 *164:1 *164:2 0.00428561
46 *758:A *164:1 1.4
*END

*D_NET *165 0.00635757

*CONN
*I *734:A I *C 76.415 44.225 *L 0.00259 *D NOR3X1
*I *733:A0 I *C 72.355 44.225 *L 0.00265 *D AOI21X1
*I *713:A0 I *C 69.745 44.225 *L 0.00265 *D AOI21X1
*I *741:C I *C 69.745 54.955 *L 0.00278 *D NOR3X1
*I *718:A I *C 69.455 49.445 *L 0.00259 *D NOR3X1
*I *751:A I *C 78.445 54.665 *L 0.00267 *D NAND2X1
*I *945:Q O *C 89.755 57.855 *L 0 *D SDFFRHQX4
*I *922:SI I *C 90.625 54.665 *L 0.00268 *D SDFFRHQX4

*CAP
1 *165:1 2.33434e-05
2 *165:2 2.33434e-05
3 *165:3 0.000308083
4 *165:4 0.000506137
5 *165:5 2.33434e-05
6 *165:6 0.000198054
7 *165:7 2.33434e-05
8 *165:8 0.000420182
9 *165:10 0.000807672
10 *165:11 2.33434e-05
11 *165:12 0.000433077
12 *165:13 2.20059e-05
13 *165:15 0.000665098
14 *165:16 2.22436e-05
15 *165:17 2.20059e-05
16 *165:18 0.00143678
17 *165:21 0.000771686
18 *165:24 0.000234973
19 *165:26 0.000215392
20 *165:27 1.9581e-05
21 *165:29 5.93605e-05
22 *165:30 5.93605e-05
23 *165:31 1.9581e-05
24 *165:32 1.9581e-05

*RES
1 *165:32 *922:SI 1.4
2 *165:31 *165:32 0.124289
3 *165:30 *165:31 1.4
4 *165:29 *165:30 0.372848
5 *165:27 *165:29 1.4
6 *165:26 *945:Q 1.4
7 *165:24 *165:27 0.124289
8 *165:24 *165:26 1.36718
9 *165:22 *751:A 1.4
10 *165:21 *165:24 1.4
11 *165:20 *718:A 1.4
12 *165:18 *165:22 1.4
13 *165:18 *165:21 4.84702
14 *165:17 *165:20 1.4
15 *165:16 *741:C 1.4
16 *165:15 *165:18 3.72849
17 *165:13 *165:17 0.124289
18 *165:12 *165:16 0.124283
19 *165:12 *165:15 1.4
20 *165:11 *713:A0 1.4
21 *165:10 *165:13 1.4
22 *165:10 *165:12 2.23709
23 *165:8 *165:11 0.124283
24 *165:8 *165:10 2.11281
25 *165:7 *733:A0 1.4
26 *165:6 *165:8 1.4
27 *165:5 *165:7 0.124283
28 *165:4 *165:6 1.1186
29 *165:4 *165:5 1.4
30 *165:3 *165:4 1.74004
31 *165:2 *165:3 1.4
32 *165:1 *165:2 0.124283
33 *734:A *165:1 1.4
*END

*D_NET *166 0.00471694

*CONN
*I *732:S0 I *C 71.775 47.125 *L 0.00372 *D MXI2XL
*I *745:A I *C 74.095 47.415 *L 0.00267 *D NAND2X1
*I *766:B I *C 71.485 49.735 *L 0.00363 *D CLKXOR2X1
*I *718:B I *C 69.165 49.445 *L 0.00272 *D NOR3X1
*I *763:A I *C 66.835 49.6725 *L 0.00163 *D INVXL
*I *751:B I *C 78.735 54.375 *L 0.00284 *D NAND2X1
*I *741:B I *C 69.455 54.665 *L 0.00272 *D NOR3X1
*I *921:SI I *C 80.185 52.635 *L 0.00268 *D SDFFRHQX4
*I *922:Q O *C 80.765 54.665 *L 0 *D SDFFRHQX4

*CAP
1 *166:1 2.33434e-05
2 *166:2 2.33434e-05
3 *166:3 0.000198054
4 *166:4 0.000176048
5 *166:5 6.60178e-05
6 *166:7 0.000186747
7 *166:8 4.40119e-05
8 *166:10 0.000186747
9 *166:11 0.000163404
10 *166:13 0.000163404
11 *166:14 0.000154042
12 *166:15 2.20059e-05
13 *166:16 0.000308083
14 *166:17 0.00038859
15 *166:19 0.000176048
16 *166:20 0.000410834
17 *166:22 1.85138e-05
18 *166:23 0.000573833
19 *166:24 2.22436e-05
20 *166:25 1.93187e-05
21 *166:26 0.000672767
22 *166:27 0.000133262
23 *166:28 8.04946e-07
24 *166:29 0.000118721
25 *166:31 0.000133262
26 *166:33 1.97868e-05
27 *166:34 0.000117486
28 *166:37 1.9581e-05
29 *166:38 0.000117486
30 *166:40 1.9581e-05
31 *166:42 1.97868e-05
32 *166:43 1.97868e-05

*RES
1 *166:44 *922:Q 1.4
2 *166:43 *166:44 1.4
3 *166:42 *166:43 0.124283
4 *166:40 *166:42 1.4
5 *166:38 *921:SI 1.4
6 *166:37 *166:40 0.124289
7 *166:36 *741:B 1.4
8 *166:34 *166:38 0.745733
9 *166:33 *166:37 1.4
10 *166:31 *166:36 1.4
11 *166:30 *751:B 1.4
12 *166:29 *166:34 1.4
13 *166:29 *166:33 0.124283
14 *166:28 *763:A 1.4
15 *166:27 *166:31 0.745698
16 *166:26 *166:30 1.4
17 *166:26 *166:29 0.621413
18 *166:25 *166:28 0.00428561
19 *166:24 *166:27 1.4
20 *166:23 *166:26 3.23136
21 *166:22 *166:25 0.098569
22 *166:20 *166:24 0.124283
23 *166:20 *166:23 1.4
24 *166:19 *166:22 1.4
25 *166:18 *718:B 1.4
26 *166:17 *166:20 2.11281
27 *166:16 *166:19 0.99431
28 *166:16 *166:18 1.4
29 *166:15 *166:17 1.4
30 *166:14 *166:16 0.745732
31 *166:14 *166:15 0.124289
32 *166:13 *166:14 1.4
33 *166:11 *166:13 0.869979
34 *166:10 *766:B 1.4
35 *166:8 *166:11 1.4
36 *166:7 *166:10 0.994261
37 *166:6 *745:A 1.4
38 *166:5 *166:8 0.248578
39 *166:5 *166:7 1.4
40 *166:4 *166:6 1.4
41 *166:3 *166:5 0.124289
42 *166:3 *166:4 0.99431
43 *166:2 *166:3 1.4
44 *166:1 *166:2 0.124283
45 *732:S0 *166:1 1.4
*END

*D_NET *167 0.00559638

*CONN
*I *715:B I *C 72.355 54.375 *L 0.00158 *D NAND4XL
*I *730:A I *C 74.965 54.955 *L 0.00155 *D NAND3XL
*I *739:A I *C 74.965 49.735 *L 0.00157 *D NAND2XL
*I *745:B I *C 74.385 47.705 *L 0.00284 *D NAND2X1
*I *757:A I *C 79.605 49.445 *L 0.00273 *D CLKINVX1
*I *746:A I *C 82.505 47.125 *L 0.00564 *D NOR2X2
*I *921:Q O *C 90.045 52.635 *L 0 *D SDFFRHQX4
*I *920:SI I *C 90.915 49.445 *L 0.00268 *D SDFFRHQX4

*CAP
1 *167:1 6.67309e-05
2 *167:2 6.67309e-05
3 *167:3 0.000199893
4 *167:4 0.000222103
5 *167:5 2.22103e-05
6 *167:6 2.22436e-05
7 *167:7 0.000408634
8 *167:8 2.22436e-05
9 *167:9 0.000408634
10 *167:11 2.20059e-05
11 *167:12 6.60178e-05
12 *167:13 2.33434e-05
13 *167:14 4.40119e-05
14 *167:15 2.33434e-05
15 *167:16 0.000186747
16 *167:17 0.000344407
17 *167:19 0.000186747
18 *167:20 0.000628572
19 *167:22 0.000284165
20 *167:23 2.09736e-05
21 *167:24 0.000167789
22 *167:25 2.09736e-05
23 *167:26 0.000188763
24 *167:28 0.00032476
25 *167:29 2.09736e-05
26 *167:30 0.00032476
27 *167:31 8.11899e-05
28 *167:32 0.000146815
29 *167:33 8.11899e-05
30 *167:34 0.000146815
31 *167:36 0.000121785
32 *167:38 0.000182677
33 *167:39 0.000228621
34 *167:40 6.08925e-05
35 *167:41 0.000228621

*RES
1 *167:42 *920:SI 1.4
2 *167:41 *921:Q 1.4
3 *167:40 *167:42 1.4
4 *167:39 *167:41 1.36712
5 *167:38 *167:40 0.372865
6 *167:38 *167:39 1.4
7 *167:36 *167:38 0.74573
8 *167:35 *746:A 1.4
9 *167:34 *167:36 1.4
10 *167:33 *167:35 1.4
11 *167:32 *167:34 0.869982
12 *167:31 *167:33 0.497153
13 *167:30 *167:32 1.4
14 *167:29 *167:31 1.4
15 *167:28 *167:30 1.98861
16 *167:26 *167:29 0.124283
17 *167:26 *167:28 1.4
18 *167:25 *757:A 1.4
19 *167:24 *167:26 0.994265
20 *167:23 *167:25 0.124283
21 *167:22 *167:24 1.4
22 *167:20 *167:23 1.4
23 *167:20 *167:22 1.74004
24 *167:19 *745:B 1.4
25 *167:17 *167:20 1.98862
26 *167:16 *167:19 0.994261
27 *167:15 *739:A 1.4
28 *167:15 *167:17 1.4
29 *167:14 *167:16 1.4
30 *167:13 *167:15 0.124283
31 *167:12 *167:14 0.248578
32 *167:12 *167:13 1.4
33 *167:11 *167:12 0.124289
34 *167:9 *167:11 1.4
35 *167:8 *730:A 1.4
36 *167:7 *167:9 2.23709
37 *167:6 *167:8 0.124283
38 *167:5 *167:7 1.4
39 *167:4 *167:6 1.4
40 *167:4 *167:5 0.124283
41 *167:3 *167:4 1.11855
42 *167:2 *167:3 1.4
43 *167:1 *167:2 0.372848
44 *715:B *167:1 1.4
*END

*D_NET *168 0.00157777

*CONN
*I *754:A I *C 81.925 42.195 *L 0.0111 *D NAND2X4
*I *944:SI I *C 80.765 44.225 *L 0.00268 *D SDFFRHQX4
*I *747:A I *C 80.475 42.195 *L 0.00263 *D NOR2X1
*I *920:Q O *C 81.055 49.445 *L 0 *D SDFFRHQX4
*I *746:B I *C 82.795 46.835 *L 0.00542 *D NOR2X2

*CAP
1 *168:2 8.11899e-05
2 *168:3 0.000101487
3 *168:4 0.000146815
4 *168:5 2.02975e-05
5 *168:6 0.000356552
6 *168:8 0.000209736
7 *168:11 2.02975e-05
8 *168:12 0.000142082
9 *168:13 0.000167789
10 *168:14 0.000121785
11 *168:15 0.000167789
12 *168:16 2.09736e-05
13 *168:18 2.09736e-05

*RES
1 *168:18 *746:B 1.4
2 *168:16 *168:18 0.124283
3 *168:15 *920:Q 1.4
4 *168:14 *168:16 1.4
5 *168:13 *168:15 0.994265
6 *168:12 *168:14 0.74573
7 *168:12 *168:13 1.4
8 *168:11 *168:12 0.124288
9 *168:8 *168:11 1.4
10 *168:7 *747:A 1.4
11 *168:6 *944:SI 1.4
12 *168:6 *168:8 1.24283
13 *168:5 *168:7 1.4
14 *168:4 *168:6 0.869982
15 *168:3 *168:5 0.124288
16 *168:3 *168:4 1.4
17 *168:2 *168:3 0.497153
18 *168:1 *168:2 1.4
19 *754:A *168:1 1.4
*END

*D_NET *169 0.00438556

*CONN
*I *752:A I *C 90.045 31.465 *L 0.00157 *D NAND2XL
*I *753:B I *C 89.755 28.855 *L 0.00171 *D NOR2XL
*I *917:SI I *C 91.495 39.005 *L 0.00268 *D SDFFRHQX4
*I *944:Q O *C 90.625 44.225 *L 0 *D SDFFRHQX4
*I *754:B I *C 82.505 41.905 *L 0.011 *D NAND2X4
*I *747:B I *C 80.185 42.195 *L 0.0028 *D NOR2X1
*I *759:A I *C 79.605 44.225 *L 0.00273 *D INVX1

*CAP
1 *169:2 2.02975e-05
2 *169:3 2.02975e-05
3 *169:4 0.00069213
4 *169:5 0.000503367
5 *169:6 0.000188763
6 *169:7 4.0595e-05
7 *169:9 4.0595e-05
8 *169:10 4.19473e-05
9 *169:11 0.000272657
10 *169:12 0.000377526
11 *169:13 8.11899e-05
12 *169:14 0.000146815
13 *169:15 0.000548032
14 *169:16 8.11899e-05
15 *169:17 2.02975e-05
16 *169:18 0.000710412
17 *169:20 2.02975e-05
18 *169:21 2.09736e-05
19 *169:22 0.000202975
20 *169:25 2.09736e-05
21 *169:27 4.0595e-05
22 *169:31 0.000146815
23 *169:32 0.000146815

*RES
1 *169:32 *759:A 1.4
2 *169:31 *169:32 0.869982
3 *169:27 *169:31 1.4
4 *169:26 *747:B 1.4
5 *169:25 *754:B 1.4
6 *169:24 *944:Q 1.4
7 *169:22 *169:27 0.248577
8 *169:22 *169:26 1.4
9 *169:21 *169:25 0.124283
10 *169:20 *169:24 1.4
11 *169:19 *917:SI 1.4
12 *169:18 *169:22 0.994307
13 *169:18 *169:21 1.4
14 *169:17 *169:20 0.124288
15 *169:16 *169:19 1.4
16 *169:15 *169:18 3.35578
17 *169:14 *169:17 1.4
18 *169:13 *169:16 0.497153
19 *169:12 *169:15 1.4
20 *169:12 *169:14 0.869982
21 *169:11 *169:13 1.4
22 *169:11 *169:12 1.36711
23 *169:10 *169:11 0.248566
24 *169:9 *169:10 1.4
25 *169:7 *169:9 0.248577
26 *169:6 *753:B 1.4
27 *169:5 *169:7 1.4
28 *169:4 *169:6 1.11855
29 *169:4 *169:5 2.98279
30 *169:3 *169:4 1.4
31 *169:2 *169:3 0.124288
32 *169:1 *169:2 1.4
33 *752:A *169:1 1.4
*END

*D_NET *170 0.00329608

*CONN
*I *913:SI I *C 89.465 23.345 *L 0.00268 *D SDFFRHQX4
*I *725:A0 I *C 88.015 28.565 *L 0.00268 *D OAI31X1
*I *726:A0 I *C 87.435 31.465 *L 0.00261 *D AOI31X1
*I *742:S0 I *C 83.665 26.245 *L 0.00372 *D MXI2XL
*I *919:Q O *C 90.045 33.785 *L 0 *D SDFFRHQX4

*CAP
1 *170:2 5.47287e-05
2 *170:3 5.47287e-05
3 *170:4 0.00035112
4 *170:5 0.000539883
5 *170:6 0.000188763
6 *170:7 4.0595e-05
7 *170:8 0.000101487
8 *170:9 4.0595e-05
9 *170:10 2.02975e-05
10 *170:11 0.000345057
11 *170:13 0.000188763
12 *170:14 2.09736e-05
13 *170:15 0.000263867
14 *170:17 0.000188763
15 *170:18 2.09736e-05
16 *170:19 0.000356552
17 *170:20 8.11899e-05
18 *170:22 0.000356552
19 *170:23 8.11899e-05

*RES
1 *170:25 *919:Q 1.4
2 *170:23 *170:25 1.4
3 *170:22 *742:S0 1.4
4 *170:20 *170:23 0.497153
5 *170:19 *170:22 2.11281
6 *170:18 *726:A0 1.4
7 *170:17 *170:20 1.4
8 *170:15 *170:19 1.4
9 *170:14 *170:18 0.124283
10 *170:13 *170:17 1.11855
11 *170:12 *725:A0 1.4
12 *170:11 *170:15 1.61575
13 *170:11 *170:14 1.4
14 *170:10 *170:13 1.4
15 *170:9 *170:12 1.4
16 *170:8 *170:11 0.497153
17 *170:8 *170:10 0.124288
18 *170:7 *170:9 0.248577
19 *170:6 *170:8 1.4
20 *170:5 *170:7 1.4
21 *170:5 *170:6 1.11855
22 *170:4 *170:5 2.2371
23 *170:3 *170:4 1.4
24 *170:2 *170:3 0.37285
25 *170:1 *170:2 1.4
26 *913:SI *170:1 1.4
*END

*D_NET *171 0.00528666

*CONN
*I *824:B I *C 33.205 75.835 *L 0.00167 *D NAND2XL
*I *782:B0 I *C 35.235 73.515 *L 0.00282 *D OAI31X1
*I *819:A I *C 36.975 73.515 *L 0.00273 *D NOR4X1
*I *906:D I *C 36.975 80.765 *L 0.00278 *D SDFFRHQX8
*I *835:SI I *C 50.025 83.665 *L 0.00276 *D SDFFRHQX1
*I *777:Q O *C 52.635 79.025 *L 0 *D SDFFRHQX1

*CAP
1 *171:2 0.000141897
2 *171:3 0.000141897
3 *171:4 0.000143304
4 *171:5 0.000143304
5 *171:6 2.36495e-05
6 *171:7 0.000165547
7 *171:8 0.000141897
8 *171:9 4.77679e-05
9 *171:10 4.77679e-05
10 *171:11 4.77679e-05
11 *171:12 4.77679e-05
12 *171:16 0.0005724
13 *171:17 0.0005724
14 *171:18 0.000912825
15 *171:19 0.000976511
16 *171:21 6.36855e-05
17 *171:22 0.000209782
18 *171:24 0.000125869
19 *171:25 0.000209782
20 *171:26 0.000125869
21 *171:27 4.2457e-05
22 *171:28 0.000170028
23 *171:29 4.2457e-05
24 *171:30 0.000170028

*RES
1 *171:32 *777:Q 1.4
2 *171:31 *835:SI 1.4
3 *171:30 *171:32 1.4
4 *171:29 *171:31 1.4
5 *171:28 *171:30 0.994264
6 *171:27 *171:29 0.248566
7 *171:26 *171:28 1.4
8 *171:25 *171:27 1.4
9 *171:24 *171:26 0.745698
10 *171:22 *171:25 1.24283
11 *171:21 *171:24 1.4
12 *171:20 *906:D 1.4
13 *171:19 *171:22 1.4
14 *171:19 *171:21 0.372849
15 *171:18 *171:20 1.4
16 *171:18 *171:19 5.34417
17 *171:17 *171:18 1.4
18 *171:16 *171:17 3.10707
19 *171:14 *171:16 1.4
20 *171:12 *819:A 1.4
21 *171:12 *171:14 1.4
22 *171:11 *782:B0 1.4
23 *171:10 *171:12 0.248565
24 *171:9 *171:11 0.248565
25 *171:8 *171:10 1.4
26 *171:7 *171:9 1.4
27 *171:7 *171:8 0.745698
28 *171:6 *171:7 0.124283
29 *171:5 *171:6 1.4
30 *171:4 *171:5 0.745696
31 *171:3 *171:4 1.4
32 *171:2 *171:3 0.745698
33 *171:1 *171:2 1.4
34 *824:B *171:1 1.4
*END

*D_NET *172 0.00345002

*CONN
*I *791:A I *C 37.265 78.445 *L 0.0017 *D MXI2XL
*I *819:B I *C 37.555 73.225 *L 0.00273 *D NOR4X1
*I *830:A I *C 38.715 78.735 *L 0.00273 *D CLKINVX1
*I *780:B I *C 41.91 78.105 *L 0.00164 *D MXI2XL
*I *777:SI I *C 44.225 78.445 *L 0.00276 *D SDFFRHQX1
*I *774:Q O *C 43.065 76.125 *L 0 *D SDFFRHQX2
*I *907:D I *C 45.385 83.955 *L 0.00278 *D SDFFRHQX8

*CAP
1 *172:1 2.24311e-05
2 *172:2 2.24311e-05
3 *172:3 2.36495e-05
4 *172:4 0.000118248
5 *172:5 0.000354743
6 *172:6 0.000406027
7 *172:7 0.000307444
8 *172:8 4.34093e-05
9 *172:9 0.000406027
10 *172:10 4.72991e-05
11 *172:11 4.11792e-06
12 *172:12 4.34093e-05
13 *172:14 2.24311e-05
14 *172:15 4.52972e-06
15 *172:17 2.24311e-05
16 *172:18 4.11792e-07
17 *172:19 4.2457e-05
18 *172:21 0.000127371
19 *172:22 0.000169828
20 *172:23 0.000189619
21 *172:24 8.4914e-05
22 *172:26 0.000189619
23 *172:27 0.000398586
24 *172:30 0.000398586

*RES
1 *172:30 *907:D 1.4
2 *172:27 *172:30 2.36138
3 *172:26 *774:Q 1.4
4 *172:25 *777:SI 1.4
5 *172:24 *172:27 1.4
6 *172:23 *172:26 0.994262
7 *172:22 *172:25 1.4
8 *172:22 *172:24 0.497132
9 *172:21 *172:23 1.4
10 *172:21 *172:22 0.497132
11 *172:19 *172:21 0.248566
12 *172:18 *780:B 1.4
13 *172:17 *172:19 1.4
14 *172:15 *172:18 0.0021428
15 *172:14 *172:17 0.124283
16 *172:12 *830:A 1.4
17 *172:11 *172:15 0.021428
18 *172:10 *172:14 1.4
19 *172:9 *819:B 1.4
20 *172:8 *172:12 0.248566
21 *172:7 *172:11 1.4
22 *172:7 *172:10 0.248566
23 *172:6 *172:9 2.11281
24 *172:5 *172:8 1.4
25 *172:5 *172:7 1.36711
26 *172:4 *172:6 1.4
27 *172:4 *172:5 0.497132
28 *172:3 *172:4 0.124283
29 *172:2 *172:3 1.4
30 *172:1 *172:2 0.124283
31 *791:A *172:1 1.4
*END

*D_NET *173 0.00834405

*CONN
*I *805:A I *C 35.815 68.295 *L 0.00263 *D NOR2X1
*I *802:A0 I *C 36.685 68.295 *L 0.00265 *D AOI21X1
*I *799:A I *C 36.395 70.615 *L 0.00157 *D NAND2XL
*I *823:B I *C 37.845 78.445 *L 0.00167 *D NAND2XL
*I *819:C I *C 38.135 73.225 *L 0.00274 *D NOR4X1
*I *783:A0 I *C 42.485 70.615 *L 0.00267 *D OAI211X1
*I *899:D I *C 31.175 85.985 *L 0.00278 *D SDFFRHQX8
*I *787:A I *C 44.515 73.225 *L 0.00157 *D NAND2XL
*I *776:Q O *C 49.445 67.715 *L 0 *D SDFFRHQX2
*I *774:SI I *C 51.475 75.835 *L 0.00272 *D SDFFRHQX2

*CAP
1 *173:2 7.09486e-05
2 *173:3 7.09486e-05
3 *173:4 0.000191072
4 *173:5 0.000453795
5 *173:7 0.000262724
6 *173:8 2.36495e-05
7 *173:9 9.45981e-05
8 *173:10 2.36495e-05
9 *173:11 0.000118248
10 *173:13 0.000378392
11 *173:14 0.00038069
12 *173:16 0.000354743
13 *173:17 4.77679e-05
14 *173:18 0.000926124
15 *173:19 7.16519e-05
16 *173:20 4.77679e-05
17 *173:21 0.000545434
18 *173:23 0.000262724
19 *173:25 0.000488255
20 *173:26 0.000165547
21 *173:27 0.000191072
22 *173:28 0.000488255
23 *173:29 0.000567589
24 *173:32 0.00052029
25 *173:33 2.3884e-05
26 *173:35 0.000118248
27 *173:36 0.000429911
28 *173:37 2.3884e-05
29 *173:38 0.000214956
30 *173:39 0.000429911
31 *173:41 0.000214956
32 *173:43 4.72991e-05
33 *173:44 4.72991e-05
34 *173:45 2.3884e-05
35 *173:46 2.3884e-05

*RES
1 *173:46 *774:SI 1.4
2 *173:45 *173:46 0.124283
3 *173:44 *173:45 1.4
4 *173:43 *173:44 0.248566
5 *173:41 *173:43 1.4
6 *173:39 *776:Q 1.4
7 *173:38 *173:41 1.11854
8 *173:37 *787:A 1.4
9 *173:36 *173:39 2.23709
10 *173:35 *173:38 1.4
11 *173:33 *173:37 0.124283
12 *173:32 *173:36 1.4
13 *173:32 *173:35 0.621415
14 *173:31 *899:D 1.4
15 *173:29 *173:33 1.4
16 *173:29 *173:32 2.11281
17 *173:28 *173:31 1.4
18 *173:27 *783:A0 1.4
19 *173:26 *173:29 0.869981
20 *173:25 *173:28 2.85851
21 *173:23 *173:27 0.994261
22 *173:23 *173:26 1.4
23 *173:21 *173:25 1.4
24 *173:20 *819:C 1.4
25 *173:19 *173:23 0.372848
26 *173:18 *823:B 1.4
27 *173:18 *173:21 3.23136
28 *173:17 *173:20 0.248565
29 *173:16 *173:19 1.4
30 *173:14 *173:18 1.98852
31 *173:13 *173:17 1.4
32 *173:13 *173:16 1.86424
33 *173:12 *799:A 1.4
34 *173:11 *173:14 1.4
35 *173:11 *173:13 0.124283
36 *173:10 *173:12 1.4
37 *173:9 *173:11 0.497132
38 *173:8 *173:10 0.124283
39 *173:7 *173:9 1.4
40 *173:5 *173:8 1.4
41 *173:5 *173:7 1.36711
42 *173:4 *802:A0 1.4
43 *173:4 *173:5 0.994261
44 *173:3 *173:4 1.4
45 *173:2 *173:3 0.372849
46 *173:1 *173:2 1.4
47 *805:A *173:1 1.4
*END

*D_NET *174 0.00633295

*CONN
*I *900:D I *C 40.165 89.175 *L 0.00278 *D SDFFRHQX8
*I *823:A I *C 38.425 78.445 *L 0.00157 *D NAND2XL
*I *819:D I *C 38.425 73.225 *L 0.00283 *D NOR4X1
*I *776:SI I *C 41.035 68.005 *L 0.00272 *D SDFFRHQX2
*I *796:B I *C 39.3 67.665 *L 0.00164 *D MXI2XL
*I *832:A I *C 43.645 65.105 *L 0.00273 *D CLKINVX1
*I *781:Q O *C 48.575 62.495 *L 0 *D SDFFRHQX2

*CAP
1 *174:2 0.000106142
2 *174:3 0.000106142
3 *174:4 0.000776194
4 *174:5 0.00120465
5 *174:6 2.12285e-05
6 *174:7 0.00085837
7 *174:8 2.12285e-05
8 *174:9 2.36495e-05
9 *174:10 0.000429911
10 *174:12 2.36495e-05
11 *174:13 4.72991e-05
12 *174:16 0.000189196
13 *174:18 0.000449341
14 *174:19 2.80019e-05
15 *174:20 0.000307444
16 *174:22 2.84137e-05
17 *174:23 0.00023884
18 *174:25 4.11792e-07
19 *174:26 0.000453795
20 *174:28 9.45981e-05
21 *174:29 0.000214956
22 *174:30 9.45981e-05
23 *174:31 0.000307444
24 *174:33 0.000307444

*RES
1 *174:35 *781:Q 1.4
2 *174:33 *174:35 1.4
3 *174:32 *832:A 1.4
4 *174:31 *174:33 1.61568
5 *174:30 *174:32 1.4
6 *174:29 *174:31 1.4
7 *174:28 *174:30 0.497132
8 *174:26 *174:29 1.11854
9 *174:26 *174:28 1.4
10 *174:25 *796:B 1.4
11 *174:23 *174:26 1.24283
12 *174:22 *174:25 0.0021428
13 *174:21 *776:SI 1.4
14 *174:20 *174:23 1.4
15 *174:19 *174:22 0.145711
16 *174:18 *174:21 1.4
17 *174:18 *174:20 1.61568
18 *174:16 *174:19 1.4
19 *174:16 *174:18 0.745698
20 *174:15 *819:D 1.4
21 *174:13 *174:16 0.248566
22 *174:12 *174:15 1.4
23 *174:11 *823:A 1.4
24 *174:10 *174:13 1.4
25 *174:9 *174:12 0.124283
26 *174:8 *174:11 1.4
27 *174:7 *174:10 2.23709
28 *174:7 *174:9 1.4
29 *174:6 *174:8 0.124283
30 *174:5 *174:7 2.23709
31 *174:5 *174:6 1.4
32 *174:4 *174:5 4.59847
33 *174:3 *174:4 1.4
34 *174:2 *174:3 0.621415
35 *174:1 *174:2 1.4
36 *900:D *174:1 1.4
*END

*D_NET *175 0.00728923

*CONN
*I *902:D I *C 23.055 80.765 *L 0.00278 *D SDFFRHQX8
*I *824:A I *C 32.625 75.835 *L 0.00157 *D NAND2XL
*I *809:A I *C 32.335 68.295 *L 0.00267 *D NAND2X1
*I *828:A I *C 31.175 68.295 *L 0.00273 *D CLKINVX1
*I *807:A I *C 30.885 68.005 *L 0.0017 *D MXI2XL
*I *804:A0 I *C 30.305 63.075 *L 0.00265 *D AOI21X1
*I *788:Q O *C 29.145 60.465 *L 0 *D SDFFRHQX2
*I *825:A I *C 25.085 63.075 *L 0.00162 *D NOR2XL
*I *672:SI I *C 23.925 57.565 *L 0.00276 *D SDFFRHQX1

*CAP
1 *175:1 1.79579e-05
2 *175:2 1.79579e-05
3 *175:3 0.00064753
4 *175:4 0.00064753
5 *175:5 0.000402307
6 *175:6 0.00102329
7 *175:7 2.36495e-05
8 *175:8 0.000620983
9 *175:9 2.36495e-05
10 *175:10 9.45981e-05
11 *175:13 0.000118248
12 *175:17 2.36495e-05
13 *175:19 2.3884e-05
14 *175:20 0.000597099
15 *175:22 0.000573215
16 *175:23 4.72991e-05
17 *175:24 0.000141897
18 *175:25 0.000167188
19 *175:26 9.45981e-05
20 *175:27 0.000167188
21 *175:28 4.77679e-05
22 *175:30 7.16519e-05
23 *175:32 2.3884e-05
24 *175:33 0.000299488
25 *175:34 0.000319955
26 *175:35 0.000196015
27 *175:36 2.04672e-05
28 *175:37 0.000196015
29 *175:38 0.000217795
30 *175:39 0.000102336
31 *175:40 0.000217795
32 *175:41 0.000102336

*RES
1 *175:43 *672:SI 1.4
2 *175:41 *175:43 1.4
3 *175:40 *825:A 1.4
4 *175:39 *175:41 0.621415
5 *175:38 *175:40 1.24283
6 *175:37 *175:39 1.4
7 *175:36 *175:38 1.4
8 *175:35 *175:37 1.11854
9 *175:34 *175:36 0.124283
10 *175:34 *175:35 1.4
11 *175:33 *175:34 1.61568
12 *175:32 *175:33 1.4
13 *175:30 *175:32 0.124283
14 *175:30 *788:Q 1.4
15 *175:28 *175:30 0.248565
16 *175:27 *804:A0 1.4
17 *175:26 *175:28 1.4
18 *175:25 *175:27 0.869979
19 *175:24 *175:26 0.497132
20 *175:24 *175:25 1.4
21 *175:23 *175:24 0.248566
22 *175:22 *175:23 1.4
23 *175:20 *175:22 2.98278
24 *175:20 *807:A 1.4
25 *175:19 *175:20 0.124283
26 *175:17 *175:19 1.4
27 *175:16 *828:A 1.4
28 *175:13 *175:17 0.124283
29 *175:13 *175:16 1.4
30 *175:12 *809:A 1.4
31 *175:11 *824:A 1.4
32 *175:10 *175:13 0.497132
33 *175:10 *175:12 1.4
34 *175:9 *175:11 1.4
35 *175:8 *175:10 1.4
36 *175:7 *175:9 0.124283
37 *175:6 *175:8 3.23135
38 *175:6 *175:7 1.4
39 *175:5 *175:6 2.23709
40 *175:4 *175:5 1.4
41 *175:3 *175:4 3.97706
42 *175:2 *175:3 1.4
43 *175:1 *175:2 0.124284
44 *902:D *175:1 1.4
*END

*D_NET *176 0.0038466

*CONN
*I *788:SI I *C 20.735 60.175 *L 0.00272 *D SDFFRHQX2
*I *829:A I *C 21.895 63.075 *L 0.00273 *D CLKINVX1
*I *815:A I *C 24.795 62.785 *L 0.0017 *D MXI2XL
*I *825:B I *C 25.375 62.785 *L 0.00171 *D NOR2XL
*I *816:B I *C 20.73 65.735 *L 0.00164 *D MXI2XL
*I *786:Q O *C 19.575 67.715 *L 0 *D SDFFRHQX2
*I *901:D I *C 19.575 78.735 *L 0.00278 *D SDFFRHQX8

*CAP
1 *176:2 2.04672e-05
2 *176:3 2.04672e-05
3 *176:4 8.71179e-05
4 *176:5 8.71179e-05
5 *176:6 6.14017e-05
6 *176:7 6.14017e-05
7 *176:8 0.000130677
8 *176:9 0.000130677
9 *176:10 0.000286541
10 *176:12 0.000245607
11 *176:13 8.18689e-05
12 *176:14 4.09345e-05
13 *176:15 2.17795e-05
14 *176:16 0.00019977
15 *176:17 2.17795e-05
16 *176:18 2.17795e-05
17 *176:19 0.000348847
18 *176:20 2.17795e-05
19 *176:22 0.000148701
20 *176:23 3.75508e-07
21 *176:25 8.18689e-05
22 *176:27 8.18689e-05
23 *176:28 0.000821888
24 *176:29 0.000821888

*RES
1 *176:29 *901:D 1.4
2 *176:28 *786:Q 1.4
3 *176:28 *176:29 4.72274
4 *176:27 *176:28 1.4
5 *176:25 *176:27 0.497132
6 *176:23 *816:B 1.4
7 *176:22 *176:25 1.4
8 *176:20 *825:B 1.4
9 *176:19 *176:23 0.0021428
10 *176:19 *176:22 0.848551
11 *176:18 *815:A 1.4
12 *176:17 *176:20 0.124283
13 *176:16 *176:19 1.13997
14 *176:15 *176:18 0.124283
15 *176:14 *176:17 1.4
16 *176:13 *176:16 1.4
17 *176:12 *176:15 1.4
18 *176:12 *176:14 0.248566
19 *176:10 *176:13 0.497132
20 *176:10 *176:12 1.24283
21 *176:9 *829:A 1.4
22 *176:9 *176:10 1.4
23 *176:8 *176:9 0.745696
24 *176:7 *176:8 1.4
25 *176:6 *176:7 0.372849
26 *176:5 *176:6 1.4
27 *176:4 *176:5 0.497131
28 *176:3 *176:4 1.4
29 *176:2 *176:3 0.124283
30 *176:1 *176:2 1.4
31 *788:SI *176:1 1.4
*END

*D_NET *177 0.00445155

*CONN
*I *797:A I *C 30.305 75.835 *L 0.00157 *D NAND2XL
*I *898:D I *C 30.015 83.955 *L 0.00278 *D SDFFRHQX8
*I *785:Q O *C 27.115 72.935 *L 0 *D SDFFRHQX2
*I *826:B I *C 23.635 70.615 *L 0.00534 *D NAND2X2
*I *827:B I *C 26.245 70.325 *L 0.0028 *D NOR2X1
*I *786:SI I *C 27.985 68.005 *L 0.00272 *D SDFFRHQX2

*CAP
1 *177:1 2.3884e-05
2 *177:2 2.3884e-05
3 *177:3 2.36495e-05
4 *177:4 2.36495e-05
5 *177:5 7.16519e-05
6 *177:6 0.000635973
7 *177:7 0.000564321
8 *177:8 0.000329502
9 *177:10 0.000329502
10 *177:11 0.000152456
11 *177:12 0.000152456
12 *177:13 4.57079e-05
13 *177:14 4.57079e-05
14 *177:15 0.00011942
15 *177:16 0.000286608
16 *177:17 4.72991e-05
17 *177:18 0.000167188
18 *177:19 4.72991e-05
19 *177:20 4.57079e-05
20 *177:22 0.000209446
21 *177:24 4.3559e-05
22 *177:25 0.000163738
23 *177:26 0.000239574
24 *177:27 2.17795e-05
25 *177:28 2.20584e-05
26 *177:29 0.000196015
27 *177:30 2.17795e-05
28 *177:31 2.20584e-05
29 *177:32 0.000163956
30 *177:35 0.000163956
31 *177:37 2.3884e-05
32 *177:38 2.3884e-05

*RES
1 *177:38 *786:SI 1.4
2 *177:37 *177:38 0.124283
3 *177:35 *177:37 1.4
4 *177:34 *827:B 1.4
5 *177:32 *177:35 0.869981
6 *177:31 *177:34 1.4
7 *177:30 *826:B 1.4
8 *177:29 *177:32 1.4
9 *177:28 *177:31 0.124283
10 *177:27 *177:30 0.124283
11 *177:26 *177:29 1.11854
12 *177:26 *177:28 1.4
13 *177:25 *177:27 1.4
14 *177:24 *177:26 0.248565
15 *177:22 *177:25 0.994265
16 *177:22 *177:24 1.4
17 *177:21 *785:Q 1.4
18 *177:20 *177:22 0.248566
19 *177:19 *177:21 1.4
20 *177:18 *177:20 1.4
21 *177:17 *177:19 0.248566
22 *177:16 *177:18 0.869979
23 *177:16 *177:17 1.4
24 *177:15 *177:16 0.621413
25 *177:14 *177:15 1.4
26 *177:13 *177:14 0.248566
27 *177:12 *177:13 1.4
28 *177:11 *177:12 0.869979
29 *177:10 *177:11 1.4
30 *177:8 *177:10 1.73996
31 *177:7 *898:D 1.4
32 *177:6 *177:8 1.4
33 *177:6 *177:7 3.23136
34 *177:5 *177:6 0.372848
35 *177:4 *177:5 1.4
36 *177:3 *177:4 0.124283
37 *177:2 *177:3 1.4
38 *177:1 *177:2 0.124283
39 *797:A *177:1 1.4
*END

*D_NET *178 0.00469994

*CONN
*I *795:S0 I *C 29.145 73.225 *L 0.00372 *D MXI2XL
*I *827:A I *C 25.955 70.325 *L 0.00263 *D NOR2X1
*I *826:A I *C 24.215 70.325 *L 0.00547 *D NAND2X2
*I *785:SI I *C 18.705 73.225 *L 0.00272 *D SDFFRHQX2
*I *790:Q O *C 19.285 75.545 *L 0 *D SDFFRHQX4
*I *904:D I *C 15.515 85.985 *L 0.00278 *D SDFFRHQX8

*CAP
1 *178:1 0.00023884
2 *178:2 0.00023884
3 *178:3 0.000258554
4 *178:4 0.000381357
5 *178:6 0.000491213
6 *178:9 0.00036841
7 *178:11 0.000217795
8 *178:12 0.000392031
9 *178:13 0.000283133
10 *178:14 2.04672e-05
11 *178:15 2.04672e-05
12 *178:16 0.000108897
13 *178:17 2.04672e-05
14 *178:18 2.04672e-05
15 *178:19 0.000245607
16 *178:22 0.000245607
17 *178:25 0.000573892
18 *178:26 0.000573892

*RES
1 *178:26 *904:D 1.4
2 *178:25 *178:26 3.85279
3 *178:22 *178:25 1.4
4 *178:21 *790:Q 1.4
5 *178:20 *785:SI 1.4
6 *178:19 *178:22 1.4914
7 *178:18 *178:21 1.4
8 *178:17 *178:20 1.4
9 *178:16 *178:19 1.4
10 *178:15 *178:18 0.124283
11 *178:14 *178:17 0.124283
12 *178:13 *178:16 0.621413
13 *178:13 *178:15 1.4
14 *178:12 *178:14 1.4
15 *178:12 *178:13 0.994261
16 *178:11 *178:12 1.24283
17 *178:9 *178:11 1.4
18 *178:8 *826:A 1.4
19 *178:6 *178:9 2.2371
20 *178:6 *178:8 1.4
21 *178:5 *827:A 1.4
22 *178:4 *178:6 0.745699
23 *178:4 *178:5 1.4
24 *178:3 *178:4 1.36711
25 *178:2 *178:3 1.4
26 *178:1 *178:2 1.24283
27 *795:S0 *178:1 1.4
*END

*D_NET *179 0.00192854

*CONN
*I *958:SI I *C 89.755 80.765 *L 0.00268 *D SDFFRHQX4
*I *838:B0 I *C 83.955 78.735 *L 0.00278 *D AOI211X1
*I *837:A0 I *C 81.345 78.735 *L 0.00265 *D AOI21X1
*I *956:Q O *C 80.475 83.955 *L 0 *D SDFFRHQX4

*CAP
1 *179:2 0.000337696
2 *179:3 0.000337696
3 *179:4 8.47913e-05
4 *179:5 0.000118708
5 *179:6 0.000151963
6 *179:7 3.39165e-05
7 *179:8 0.000168848
8 *179:10 3.39165e-05
9 *179:11 1.68848e-05
10 *179:12 3.39165e-05
11 *179:13 0.000271332
12 *179:15 0.000271332
13 *179:16 3.37696e-05
14 *179:17 3.37696e-05

*RES
1 *179:18 *956:Q 1.4
2 *179:17 *179:18 1.4
3 *179:16 *179:17 0.248565
4 *179:15 *179:16 1.4
5 *179:13 *179:15 1.9886
6 *179:12 *837:A0 1.4
7 *179:11 *179:13 1.4
8 *179:10 *179:12 0.248575
9 *179:8 *179:11 0.124283
10 *179:8 *179:10 1.4
11 *179:7 *838:B0 1.4
12 *179:6 *179:8 1.11854
13 *179:5 *179:7 0.248575
14 *179:5 *179:6 1.4
15 *179:4 *179:5 0.621438
16 *179:3 *179:4 1.4
17 *179:2 *179:3 2.48565
18 *179:1 *179:2 1.4
19 *958:SI *179:1 1.4
*END

*D_NET *180 0.00187633

*CONN
*I *957:SI I *C 89.755 75.545 *L 0.00268 *D SDFFRHQX4
*I *838:C0 I *C 84.535 78.735 *L 0.00281 *D AOI211X1
*I *837:A1 I *C 81.055 78.735 *L 0.00278 *D AOI21X1
*I *958:Q O *C 79.895 80.765 *L 0 *D SDFFRHQX4

*CAP
1 *180:1 0.000228416
2 *180:2 0.000228416
3 *180:3 0.000303926
4 *180:4 0.000506544
5 *180:5 1.69583e-05
6 *180:6 0.000236387
7 *180:7 1.69583e-05
8 *180:8 1.69583e-05
9 *180:9 3.37696e-05
10 *180:11 1.69583e-05
11 *180:12 0.00010175
12 *180:14 0.00010175
13 *180:15 3.37696e-05
14 *180:16 3.37696e-05

*RES
1 *180:17 *958:Q 1.4
2 *180:16 *180:17 1.4
3 *180:15 *180:16 0.248565
4 *180:14 *180:15 1.4
5 *180:12 *180:14 0.745725
6 *180:11 *837:A1 1.4
7 *180:9 *180:12 1.4
8 *180:8 *180:11 0.124288
9 *180:7 *838:C0 1.4
10 *180:6 *180:9 0.248565
11 *180:6 *180:8 1.4
12 *180:5 *180:7 0.124288
13 *180:4 *180:6 1.49139
14 *180:4 *180:5 1.4
15 *180:3 *180:4 2.23709
16 *180:2 *180:3 1.4
17 *180:1 *180:2 1.49146
18 *957:SI *180:1 1.4
*END

*D_NET *181 0.0017288

*CONN
*I *838:A0 I *C 83.32 78.7475 *L 0.00263 *D AOI211X1
*I *957:Q O *C 79.895 75.545 *L 0 *D SDFFRHQX4
*I *946:SI I *C 79.605 70.325 *L 0.00268 *D SDFFRHQX4

*CAP
1 *181:1 3.21622e-06
2 *181:2 0.000156808
3 *181:3 0.000153591
4 *181:4 0.000237442
5 *181:5 0.000237442
6 *181:6 5.87431e-05
7 *181:7 0.000430783
8 *181:9 0.00037204
9 *181:10 1.97868e-05
10 *181:11 1.97868e-05
11 *181:12 1.9581e-05
12 *181:13 1.9581e-05

*RES
1 *181:13 *946:SI 1.4
2 *181:12 *181:13 0.124289
3 *181:11 *181:12 1.4
4 *181:10 *181:11 0.124283
5 *181:9 *181:10 1.4
6 *181:7 *181:9 2.36149
7 *181:7 *957:Q 1.4
8 *181:6 *181:7 0.372866
9 *181:5 *181:6 1.4
10 *181:4 *181:5 1.49139
11 *181:3 *181:4 1.4
12 *181:2 *181:3 1.00074
13 *181:1 *181:2 0.0235718
14 *838:A0 *181:1 1.4
*END

*D_NET *182 0.00256513

*CONN
*I *838:A1 I *C 83.665 78.735 *L 0.00279 *D AOI211X1
*I *946:Q O *C 89.465 70.325 *L 0 *D SDFFRHQX4
*I *918:SI I *C 89.755 65.105 *L 0.00268 *D SDFFRHQX4

*CAP
1 *182:2 0.000287041
2 *182:3 0.000287041
3 *182:4 0.000466011
4 *182:5 0.000466011
5 *182:6 5.93605e-05
6 *182:7 5.93605e-05
7 *182:8 9.79052e-05
8 *182:9 0.000450364
9 *182:11 0.000352459
10 *182:12 1.97868e-05
11 *182:13 1.97868e-05

*RES
1 *182:14 *918:SI 1.4
2 *182:13 *182:14 1.4
3 *182:12 *182:13 0.124283
4 *182:11 *182:12 1.4
5 *182:9 *182:11 2.2372
6 *182:9 *946:Q 1.4
7 *182:8 *182:9 0.621444
8 *182:7 *182:8 1.4
9 *182:6 *182:7 0.372848
10 *182:5 *182:6 1.4
11 *182:4 *182:5 2.98293
12 *182:3 *182:4 1.4
13 *182:2 *182:3 2.11281
14 *182:1 *182:2 1.4
15 *838:A1 *182:1 1.4
*END

*D_NET *183 0.0103886

*CONN
*I *926:SI I *C 62.205 10.875 *L 0.00268 *D SDFFRHQX4
*I *852:A1 I *C 61.335 16.095 *L 0.00278 *D AOI21X1
*I *843:Q O *C 56.985 21.605 *L 0 *D SDFFRHQX1
*I *903:D I *C 52.635 68.295 *L 0.00278 *D SDFFRHQX8

*CAP
1 *183:2 4.03976e-05
2 *183:3 4.03976e-05
3 *183:4 0.000426479
4 *183:5 0.000426479
5 *183:6 2.01988e-05
6 *183:7 4.03976e-05
7 *183:8 4.26479e-05
8 *183:9 2.01988e-05
9 *183:10 4.26479e-05
10 *183:11 0.000234563
11 *183:13 0.000234563
12 *183:14 0.000282783
13 *183:15 0.000282783
14 *183:16 0.000127944
15 *183:17 0.0037939
16 *183:18 0.00366595
17 *183:20 0.000333155
18 *183:21 0.000333155

*RES
1 *183:22 *903:D 1.4
2 *183:21 *183:22 1.4
3 *183:20 *183:21 1.86424
4 *183:18 *183:20 1.4
5 *183:17 *843:Q 1.4
6 *183:17 *183:18 20.0095
7 *183:16 *183:17 0.745696
8 *183:15 *183:16 1.4
9 *183:14 *183:15 1.74004
10 *183:13 *183:14 1.4
11 *183:11 *183:13 1.36711
12 *183:10 *852:A1 1.4
13 *183:9 *183:11 1.4
14 *183:8 *183:10 0.248565
15 *183:7 *183:9 0.124288
16 *183:7 *183:8 1.4
17 *183:6 *183:7 0.124288
18 *183:5 *183:6 1.4
19 *183:4 *183:5 2.48565
20 *183:3 *183:4 1.4
21 *183:2 *183:3 0.248577
22 *183:1 *183:2 1.4
23 *926:SI *183:1 1.4
*END

*D_NET *184 0.0106403

*CONN
*I *842:B1 I *C 37.265 18.125 *L 0.00164 *D AO22X1
*I *905:D I *C 36.685 59.885 *L 0.00278 *D SDFFRHQX8
*I *841:Q O *C 30.595 23.055 *L 0 *D SDFFRHQX1
*I *942:SI I *C 25.955 7.685 *L 0.00268 *D SDFFRHQX4

*CAP
1 *184:1 0.000387434
2 *184:2 0.000387434
3 *184:3 4.2313e-05
4 *184:4 0.000338504
5 *184:5 0.00293962
6 *184:6 0.000296191
7 *184:7 0.00293962
8 *184:8 2.15241e-05
9 *184:10 2.15241e-05
10 *184:11 0.000148095
11 *184:12 0.000485726
12 *184:14 0.00033763
13 *184:16 0.00114734
14 *184:17 0.00114734

*RES
1 *184:17 *942:SI 1.4
2 *184:16 *184:17 6.58727
3 *184:14 *184:16 1.4
4 *184:13 *841:Q 1.4
5 *184:12 *184:14 1.98861
6 *184:12 *184:13 1.4
7 *184:11 *184:12 0.870019
8 *184:10 *184:11 1.4
9 *184:8 *184:10 0.124288
10 *184:7 *905:D 1.4
11 *184:6 *184:8 1.4
12 *184:5 *184:7 15.6602
13 *184:4 *184:6 1.74004
14 *184:4 *184:5 1.4
15 *184:3 *184:4 0.248577
16 *184:2 *184:3 1.4
17 *184:1 *184:2 2.23719
18 *842:B1 *184:1 1.4
*END

*D_NET *185 0.00368202

*CONN
*I *523:D I *C 7.395 39.005 *L 0.00276 *D SDFFRHQX1
*I *948:SI I *C 5.075 21.315 *L 0.00268 *D SDFFRHQX4
*I *897:Q O *C 5.365 18.125 *L 0 *D SDFFRHQX4

*CAP
1 *185:1 0.00132667
2 *185:2 0.00132667
3 *185:3 5.82293e-05
4 *185:4 5.82293e-05
5 *185:5 4.32957e-05
6 *185:6 0.000281422
7 *185:7 9.70488e-05
8 *185:8 0.000238126
9 *185:9 9.70488e-05
10 *185:10 7.7639e-05
11 *185:12 7.7639e-05

*RES
1 *185:14 *897:Q 1.4
2 *185:12 *185:14 1.4
3 *185:11 *948:SI 1.4
4 *185:10 *185:12 0.497155
5 *185:9 *185:11 1.4
6 *185:8 *185:10 1.4
7 *185:7 *185:9 0.621444
8 *185:6 *185:8 1.36717
9 *185:6 *185:7 1.4
10 *185:5 *185:6 0.248576
11 *185:4 *185:5 1.4
12 *185:3 *185:4 0.372866
13 *185:2 *185:3 1.4
14 *185:1 *185:2 7.33303
15 *523:D *185:1 1.4
*END

*D_NET *186 0.00246114

*CONN
*I *876:D I *C 13.195 47.415 *L 0.00174 *D SDFFRX1
*I *964:SI I *C 19.575 42.195 *L 0.00168 *D SDFFRX1
*I *523:Q O *C 14.355 38.715 *L 0 *D SDFFRHQX1

*CAP
1 *186:1 0.000409663
2 *186:2 0.000409663
3 *186:3 2.1912e-05
4 *186:4 0.000482064
5 *186:5 0.000460152
6 *186:6 0.000273109
7 *186:8 0.000273109
8 *186:10 6.5736e-05
9 *186:11 6.5736e-05

*RES
1 *186:12 *523:Q 1.4
2 *186:11 *186:12 1.4
3 *186:10 *186:11 0.372849
4 *186:8 *186:10 1.4
5 *186:7 *964:SI 1.4
6 *186:6 *186:8 1.49146
7 *186:5 *186:7 1.4
8 *186:4 *186:6 1.4
9 *186:4 *186:5 2.60994
10 *186:3 *186:4 0.124283
11 *186:2 *186:3 1.4
12 *186:1 *186:2 2.2372
13 *876:D *186:1 1.4
*END

*D_NET *187 0.0126399

*CONN
*I *861:A I *C 56.405 78.445 *L 0.0208 *D CLKINVX8
*I *862:A I *C 5.655 54.955 *L 0.0208 *D CLKINVX8
*I *876:QN O *C 5.075 47.705 *L 0 *D SDFFRX1

*CAP
1 *187:1 0.00180112
2 *187:2 0.00180112
3 *187:3 0.00387298
4 *187:4 0.00389345
5 *187:5 0.00055967
6 *187:6 2.04672e-05
7 *187:7 0.00055967
8 *187:9 6.5736e-05
9 *187:11 6.5736e-05

*RES
1 *187:12 *876:QN 1.4
2 *187:11 *187:12 1.4
3 *187:9 *187:11 0.372849
4 *187:8 *862:A 1.4
5 *187:7 *187:9 1.4
6 *187:6 *187:8 1.4
7 *187:5 *187:7 3.10716
8 *187:4 *187:6 0.124283
9 *187:4 *187:5 1.4
10 *187:3 *187:4 21.6252
11 *187:2 *187:3 1.4
12 *187:1 *187:2 10.0669
13 *861:A *187:1 1.4
*END

*D_NET *188 0.00261245

*CONN
*I *563:B0 I *C 57.855 10.875 *L 0.00282 *D OAI31X1
*I *926:Q O *C 72.065 10.875 *L 0 *D SDFFRHQX4
*I *927:SI I *C 62.495 7.685 *L 0.00268 *D SDFFRHQX4

*CAP
1 *188:1 2.1324e-05
2 *188:2 2.1324e-05
3 *188:3 0.000262585
4 *188:4 0.000262585
5 *188:5 0.000234563
6 *188:6 2.1324e-05
7 *188:7 0.00021324
8 *188:8 0.000727157
9 *188:9 6.05964e-05
10 *188:10 0.000727157
11 *188:11 6.05964e-05

*RES
1 *188:13 *927:SI 1.4
2 *188:12 *926:Q 1.4
3 *188:11 *188:13 1.4
4 *188:10 *188:12 1.4
5 *188:9 *188:11 0.372865
6 *188:8 *188:10 4.47438
7 *188:7 *188:9 1.4
8 *188:6 *188:8 1.4
9 *188:5 *188:7 1.24283
10 *188:5 *188:6 0.124283
11 *188:4 *188:5 1.4
12 *188:3 *188:4 1.61575
13 *188:2 *188:3 1.4
14 *188:1 *188:2 0.124283
15 *563:B0 *188:1 1.4
*END

*D_NET *189 0.00697928

*CONN
*I *959:D I *C 23.925 47.415 *L 0.00174 *D SDFFRX1
*I *598:SI I *C 34.945 28.855 *L 0.00276 *D SDFFRHQX1
*I *546:Q O *C 34.075 26.825 *L 0 *D SDFFRHQX1
*I *550:A0N I *C 45.385 26.245 *L 0.00167 *D OAI2BB1XL

*CAP
1 *189:2 0.000842282
2 *189:3 0.000842282
3 *189:4 0.00149491
4 *189:5 0.00149491
5 *189:6 2.29811e-05
6 *189:7 4.59622e-05
7 *189:8 2.29811e-05
8 *189:10 0.000163506
9 *189:12 0.000210222
10 *189:13 9.19243e-05
11 *189:14 4.67159e-05
12 *189:15 9.19243e-05
13 *189:16 0.000804338
14 *189:18 0.000804338

*RES
1 *189:20 *550:A0N 1.4
2 *189:18 *189:20 1.4
3 *189:17 *546:Q 1.4
4 *189:16 *189:18 4.35011
5 *189:15 *189:17 1.4
6 *189:14 *189:16 1.4
7 *189:13 *189:15 0.497155
8 *189:12 *189:14 0.248578
9 *189:12 *189:13 1.4
10 *189:10 *189:12 0.870021
11 *189:9 *598:SI 1.4
12 *189:8 *189:10 1.4
13 *189:7 *189:9 1.4
14 *189:7 *189:8 0.124289
15 *189:6 *189:7 0.124289
16 *189:5 *189:6 1.4
17 *189:4 *189:5 7.95448
18 *189:3 *189:4 1.4
19 *189:2 *189:3 4.59864
20 *189:1 *189:2 1.4
21 *959:D *189:1 1.4
*END

*D_NET *190 0.00603557

*CONN
*I *894:A I *C 5.945 62.785 *L 0.0208 *D CLKINVX8
*I *893:A I *C 12.615 78.445 *L 0.0208 *D CLKINVX8
*I *959:QN O *C 15.805 47.705 *L 0 *D SDFFRX1

*CAP
1 *190:2 0.000470746
2 *190:3 0.000470746
3 *190:4 0.00121774
4 *190:5 0.00117418
5 *190:6 4.3559e-05
6 *190:8 0.00022514
7 *190:9 0.00022514
8 *190:10 0.00110416
9 *190:11 0.00110416

*RES
1 *190:11 *959:QN 1.4
2 *190:10 *190:11 6.21423
3 *190:9 *190:10 1.4
4 *190:8 *190:9 1.36711
5 *190:6 *190:8 1.4
6 *190:5 *893:A 1.4
7 *190:4 *190:6 0.248565
8 *190:4 *190:5 6.71127
9 *190:3 *190:4 1.4
10 *190:2 *190:3 2.85851
11 *190:1 *190:2 1.4
12 *894:A *190:1 1.4
*END

*D_NET *191 0.00616635

*CONN
*I *760:A I *C 57.285 39.2325 *L 0.00163 *D INVXL
*I *682:Q O *C 53.595 41.745 *L 0 *D SDFFRXL
*I *964:D I *C 21.025 42.195 *L 0.00174 *D SDFFRX1

*CAP
1 *191:1 8.04946e-07
2 *191:2 0.000192382
3 *191:3 0.000191577
4 *191:4 0.000286077
5 *191:5 0.000286077
6 *191:6 1.04643e-05
7 *191:7 5.39314e-05
8 *191:8 7.24451e-06
9 *191:9 3.62226e-05
10 *191:11 0.00255078
11 *191:12 0.00255078

*RES
1 *191:13 *964:D 1.4
2 *191:12 *191:13 1.4
3 *191:11 *191:12 13.9202
4 *191:9 *191:11 1.4
5 *191:8 *682:Q 1.4
6 *191:7 *191:9 0.192852
7 *191:7 *191:8 0.0385705
8 *191:6 *191:7 0.0557129
9 *191:5 *191:6 1.4
10 *191:4 *191:5 1.61575
11 *191:3 *191:4 1.4
12 *191:2 *191:3 1.01997
13 *191:1 *191:2 0.00428561
14 *760:A *191:1 1.4
*END

*D_NET *192 0.0101399

*CONN
*I *891:A I *C 5.945 86.275 *L 0.0208 *D CLKINVX8
*I *964:QN O *C 29.145 42.485 *L 0 *D SDFFRX1
*I *892:A I *C 5.365 41.905 *L 0.0208 *D CLKINVX8

*CAP
1 *192:3 0.00321642
2 *192:4 0.00321642
3 *192:5 0.00180801
4 *192:6 0.00176419
5 *192:7 4.3824e-05
6 *192:9 4.55181e-05
7 *192:11 4.55181e-05

*RES
1 *192:11 *892:A 1.4
2 *192:9 *192:11 0.248577
3 *192:8 *964:QN 1.4
4 *192:7 *192:9 1.4
5 *192:6 *192:8 1.4
6 *192:5 *192:7 0.248566
7 *192:5 *192:6 9.9427
8 *192:4 *192:5 1.4
9 *192:3 *192:4 18.7669
10 *192:2 *192:3 1.4
11 *192:1 *192:2 1.4
12 *891:A *192:1 1.4
*END

*D_NET *193 0.00189074

*CONN
*I *648:SI I *C 77.865 57.565 *L 0.00276 *D SDFFRHQX1
*I *658:Q O *C 78.155 63.365 *L 0 *D SDFFRHQX1
*I *869:D I *C 79.605 68.295 *L 0.00278 *D SDFFRHQX8

*CAP
1 *193:1 0.000289167
2 *193:2 0.000289167
3 *193:3 2.22103e-05
4 *193:4 2.22103e-05
5 *193:5 0.000155705
6 *193:6 0.000533847
7 *193:7 0.000378142
8 *193:9 0.000100146
9 *193:10 0.000100146

*RES
1 *193:11 *869:D 1.4
2 *193:10 *193:11 1.4
3 *193:9 *193:10 0.621414
4 *193:7 *193:9 1.4
5 *193:6 *658:Q 1.4
6 *193:6 *193:7 2.11281
7 *193:5 *193:6 0.869979
8 *193:4 *193:5 1.4
9 *193:3 *193:4 0.124283
10 *193:2 *193:3 1.4
11 *193:1 *193:2 1.61567
12 *648:SI *193:1 1.4
*END

*D_NET *194 0.00519765

*CONN
*I *897:SI I *C 15.225 18.125 *L 0.00268 *D SDFFRHQX4
*I *939:Q O *C 23.345 21.315 *L 0 *D SDFFRHQX4
*I *618:A0 I *C 27.695 39.295 *L 0.00259 *D AOI32X1

*CAP
1 *194:2 0.000485244
2 *194:3 0.000485244
3 *194:4 0.000108239
4 *194:5 0.000108239
5 *194:6 1.94098e-05
6 *194:7 1.94098e-05
7 *194:8 0.000129887
8 *194:9 0.00154537
9 *194:10 3.88195e-05
10 *194:11 0.00141549
11 *194:12 3.88195e-05
12 *194:13 0.000378384
13 *194:15 0.000378384
14 *194:17 2.3358e-05
15 *194:18 2.3358e-05

*RES
1 *194:18 *618:A0 1.4
2 *194:17 *194:18 0.124289
3 *194:15 *194:17 1.4
4 *194:14 *939:Q 1.4
5 *194:13 *194:15 2.11284
6 *194:12 *194:14 1.4
7 *194:11 *194:13 1.4
8 *194:10 *194:12 0.248578
9 *194:9 *194:11 7.83018
10 *194:9 *194:10 1.4
11 *194:8 *194:9 0.745729
12 *194:7 *194:8 1.4
13 *194:6 *194:7 0.124289
14 *194:5 *194:6 1.4
15 *194:4 *194:5 0.621441
16 *194:3 *194:4 1.4
17 *194:2 *194:3 3.10722
18 *194:1 *194:2 1.4
19 *897:SI *194:1 1.4
*END

*D_NET *195 0.000570402

*CONN
*I *882:SI I *C 47.705 65.105 *L 0.00168 *D SDFFRX1
*I *882:D I *C 49.155 65.105 *L 0.00174 *D SDFFRX1
*I *575:Q O *C 49.445 63.365 *L 0 *D SDFFRHQX1

*CAP
1 *195:2 0.000118248
2 *195:3 0.000141897
3 *195:4 2.36495e-05
4 *195:6 0.000143304
5 *195:8 0.000143304

*RES
1 *195:8 *575:Q 1.4
2 *195:6 *195:8 0.745696
3 *195:5 *882:D 1.4
4 *195:4 *195:6 1.4
5 *195:3 *195:5 1.4
6 *195:3 *195:4 0.124283
7 *195:2 *195:3 0.621415
8 *195:1 *195:2 1.4
9 *882:SI *195:1 1.4
*END

*D_NET *196 0.00809133

*CONN
*I *879:A I *C 31.755 60.175 *L 0.0208 *D CLKINVX8
*I *882:QN O *C 57.275 64.815 *L 0 *D SDFFRX1
*I *878:A I *C 61.625 81.055 *L 0.0208 *D CLKINVX8

*CAP
1 *196:2 0.00201155
2 *196:3 0.00201155
3 *196:4 0.000422629
4 *196:5 0.000422629
5 *196:6 4.44206e-05
6 *196:7 0.000377575
7 *196:8 0.000333155
8 *196:9 6.67309e-05
9 *196:10 0.00116718
10 *196:11 6.67309e-05
11 *196:12 0.00116718

*RES
1 *196:12 *878:A 1.4
2 *196:11 *882:QN 1.4
3 *196:10 *196:12 6.58704
4 *196:9 *196:11 0.372848
5 *196:8 *196:10 1.4
6 *196:7 *196:9 1.4
7 *196:7 *196:8 1.86424
8 *196:6 *196:7 0.248566
9 *196:5 *196:6 1.4
10 *196:4 *196:5 2.36137
11 *196:3 *196:4 1.4
12 *196:2 *196:3 10.6883
13 *196:1 *196:2 1.4
14 *879:A *196:1 1.4
*END

*D_NET *197 0.00208289

*CONN
*I *538:SI I *C 59.015 15.805 *L 0.00276 *D SDFFRHQX1
*I *563:A2 I *C 57.565 10.875 *L 0.00279 *D OAI31X1
*I *927:Q O *C 52.635 7.685 *L 0 *D SDFFRHQX4

*CAP
1 *197:1 0.000298535
2 *197:2 0.000298535
3 *197:3 0.000100994
4 *197:4 0.000100994
5 *197:5 6.39719e-05
6 *197:6 0.000298535
7 *197:8 0.000234563
8 *197:9 0.00034338
9 *197:10 0.00034338

*RES
1 *197:11 *927:Q 1.4
2 *197:10 *197:11 1.4
3 *197:9 *197:10 2.1129
4 *197:8 *197:9 1.4
5 *197:6 *197:8 1.36711
6 *197:6 *563:A2 1.4
7 *197:5 *197:6 0.372848
8 *197:4 *197:5 1.4
9 *197:3 *197:4 0.621442
10 *197:2 *197:3 1.4
11 *197:1 *197:2 1.73996
12 *538:SI *197:1 1.4
*END

*D_NET *198 0.00401585

*CONN
*I *929:SI I *C 18.995 23.345 *L 0.00268 *D SDFFRHQX4
*I *936:Q O *C 32.045 28.565 *L 0 *D SDFFRHQX4
*I *635:A0N I *C 30.015 34.075 *L 0.00172 *D AOI2BB1X1
*I *637:A I *C 27.985 34.075 *L 0.00157 *D NAND2XL

*CAP
1 *198:2 3.88195e-05
2 *198:3 3.88195e-05
3 *198:4 0.000353588
4 *198:5 0.000353588
5 *198:6 0.00071134
6 *198:7 0.00071134
7 *198:8 4.67159e-05
8 *198:9 0.000490517
9 *198:10 0.000252792
10 *198:11 0.000443802
11 *198:12 0.000252792
12 *198:13 0.000160868
13 *198:15 9.19243e-05
14 *198:16 6.89432e-05

*RES
1 *198:19 *637:A 1.4
2 *198:18 *635:A0N 1.4
3 *198:16 *198:19 1.4
4 *198:15 *198:18 1.4
5 *198:14 *936:Q 1.4
6 *198:13 *198:16 0.372866
7 *198:13 *198:15 0.497155
8 *198:12 *198:14 1.4
9 *198:11 *198:13 1.4
10 *198:10 *198:12 1.36718
11 *198:9 *198:11 2.36149
12 *198:9 *198:10 1.4
13 *198:8 *198:9 0.248578
14 *198:7 *198:8 1.4
15 *198:6 *198:7 3.97711
16 *198:5 *198:6 1.4
17 *198:4 *198:5 1.98861
18 *198:3 *198:4 1.4
19 *198:2 *198:3 0.248578
20 *198:1 *198:2 1.4
21 *929:SI *198:1 1.4
*END

*D_NET *199 0.00657637

*CONN
*I *808:B I *C 29.435 57.855 *L 0.00276 *D NAND3BX1
*I *822:D I *C 24.795 54.665 *L 0.00276 *D SDFFRHQX1
*I *928:Q O *C 29.145 31.755 *L 0 *D SDFFRHQX4
*I *936:SI I *C 22.185 28.565 *L 0.00268 *D SDFFRHQX4

*CAP
1 *199:2 2.36495e-05
2 *199:3 2.36495e-05
3 *199:4 0.000286608
4 *199:5 0.000286608
5 *199:6 7.09486e-05
6 *199:7 0.000340423
7 *199:8 0.00182587
8 *199:9 0.000269474
9 *199:10 0.0019193
10 *199:11 2.17795e-05
11 *199:12 6.89432e-05
12 *199:13 9.34319e-05
13 *199:14 2.17795e-05
14 *199:15 6.89432e-05
15 *199:16 0.00046817
16 *199:19 0.00046817
17 *199:21 0.000159313
18 *199:22 0.000159313

*RES
1 *199:22 *936:SI 1.4
2 *199:21 *199:22 0.870021
3 *199:19 *199:21 1.4
4 *199:18 *928:Q 1.4
5 *199:16 *199:19 2.60999
6 *199:15 *199:18 1.4
7 *199:14 *822:D 1.4
8 *199:13 *199:16 1.4
9 *199:12 *199:15 0.372866
10 *199:11 *199:14 0.124283
11 *199:10 *199:13 0.497155
12 *199:10 *199:12 1.4
13 *199:9 *199:11 1.4
14 *199:8 *199:10 9.69448
15 *199:7 *199:9 1.4914
16 *199:7 *199:8 1.4
17 *199:6 *199:7 0.372849
18 *199:5 *199:6 1.4
19 *199:4 *199:5 1.49139
20 *199:3 *199:4 1.4
21 *199:2 *199:3 0.124283
22 *199:1 *199:2 1.4
23 *808:B *199:1 1.4
*END

*D_NET *200 0.00708083

*CONN
*I *831:A I *C 32.625 57.855 *L 0.00273 *D INVX1
*I *821:D I *C 29.725 52.635 *L 0.00276 *D SDFFRHQX1
*I *929:Q O *C 28.855 23.345 *L 0 *D SDFFRHQX4
*I *939:SI I *C 33.205 21.315 *L 0.00268 *D SDFFRHQX4

*CAP
1 *200:2 0.000236495
2 *200:3 0.000236495
3 *200:4 0.000429911
4 *200:5 0.00266481
5 *200:7 0.0022349
6 *200:8 6.34694e-05
7 *200:9 6.34694e-05
8 *200:10 0.00010762
9 *200:11 0.000215241
10 *200:13 0.00010762
11 *200:14 0.000317347
12 *200:15 0.000317347
13 *200:16 4.30482e-05
14 *200:17 4.30482e-05

*RES
1 *200:17 *939:SI 1.4
2 *200:16 *200:17 0.248577
3 *200:15 *200:16 1.4
4 *200:14 *200:15 1.86433
5 *200:13 *200:14 1.4
6 *200:11 *200:13 0.621442
7 *200:11 *929:Q 1.4
8 *200:10 *200:11 0.621442
9 *200:9 *200:10 1.4
10 *200:8 *200:9 0.372865
11 *200:7 *200:8 1.4
12 *200:5 *200:7 11.9317
13 *200:5 *821:D 1.4
14 *200:4 *200:5 2.23709
15 *200:3 *200:4 1.4
16 *200:2 *200:3 1.24283
17 *200:1 *200:2 1.4
18 *831:A *200:1 1.4
*END

*D_NET *201 0.00295098

*CONN
*I *524:D I *C 11.165 36.975 *L 0.00276 *D SDFFRHQX1
*I *524:SI I *C 12.615 36.685 *L 0.00276 *D SDFFRHQX1
*I *948:Q O *C 14.935 21.315 *L 0 *D SDFFRHQX4

*CAP
1 *201:1 2.2759e-05
2 *201:2 2.2759e-05
3 *201:3 0.00010956
4 *201:4 0.00010956
5 *201:5 0.00118789
6 *201:7 0.00118789
7 *201:8 0.000155278
8 *201:9 0.000155278

*RES
1 *201:10 *948:Q 1.4
2 *201:9 *201:10 1.4
3 *201:8 *201:9 0.99431
4 *201:7 *201:8 1.4
5 *201:5 *201:7 6.58729
6 *201:5 *524:SI 1.4
7 *201:4 *201:5 1.4
8 *201:3 *201:4 0.621415
9 *201:2 *201:3 1.4
10 *201:1 *201:2 0.124289
11 *524:D *201:1 1.4
*END

*D_NET *202 0.00205826

*CONN
*I *877:D I *C 10.005 44.225 *L 0.00174 *D SDFFRX1
*I *523:SI I *C 5.945 39.295 *L 0.00276 *D SDFFRHQX1
*I *524:Q O *C 4.205 37.265 *L 0 *D SDFFRHQX1

*CAP
1 *202:1 0.000364145
2 *202:2 0.000364145
3 *202:3 0.000284856
4 *202:4 0.000306768
5 *202:5 0.000182072
6 *202:6 2.1912e-05
7 *202:7 0.000182072
8 *202:8 2.2759e-05
9 *202:9 0.000153384
10 *202:10 2.2759e-05
11 *202:11 0.000153384

*RES
1 *202:13 *524:Q 1.4
2 *202:11 *202:13 1.4
3 *202:10 *523:SI 1.4
4 *202:9 *202:11 0.869981
5 *202:8 *202:10 0.124289
6 *202:7 *202:9 1.4
7 *202:6 *202:8 1.4
8 *202:5 *202:7 0.99431
9 *202:4 *202:6 0.124283
10 *202:4 *202:5 1.4
11 *202:3 *202:4 1.61568
12 *202:2 *202:3 1.4
13 *202:1 *202:2 1.98862
14 *877:D *202:1 1.4
*END

*D_NET *203 0.014246

*CONN
*I *863:A I *C 68.295 73.225 *L 0.0208 *D CLKINVX8
*I *864:A I *C 5.365 49.735 *L 0.0208 *D CLKINVX8
*I *877:QN O *C 18.125 43.935 *L 0 *D SDFFRX1

*CAP
1 *203:2 0.00382164
2 *203:3 0.00382164
3 *203:4 0.00177246
4 *203:5 0.00177246
5 *203:6 0.00010956
6 *203:7 0.00107369
7 *203:8 0.000455181
8 *203:9 0.000964128
9 *203:10 0.000455181

*RES
1 *203:14 *877:QN 1.4
2 *203:12 *203:14 1.4
3 *203:11 *864:A 1.4
4 *203:10 *203:12 1.4
5 *203:9 *203:11 1.4
6 *203:8 *203:10 2.48577
7 *203:7 *203:9 5.46845
8 *203:7 *203:8 1.4
9 *203:6 *203:7 0.621415
10 *203:5 *203:6 1.4
11 *203:4 *203:5 10.0669
12 *203:3 *203:4 1.4
13 *203:2 *203:3 20.8795
14 *203:1 *203:2 1.4
15 *863:A *203:1 1.4
*END

*D_NET *204 0.0059498

*CONN
*I *755:A I *C 58.735 39.2325 *L 0.00163 *D INVXL
*I *683:Q O *C 55.335 44.675 *L 0 *D SDFFRXL
*I *933:D I *C 26.535 44.225 *L 0.00174 *D SDFFRX1

*CAP
1 *204:1 8.04946e-07
2 *204:2 2.89781e-05
3 *204:3 2.81731e-05
4 *204:4 0.000264071
5 *204:5 0.000264071
6 *204:6 0.000373495
7 *204:7 0.000409718
8 *204:8 4.34671e-05
9 *204:9 0.00226489
10 *204:10 7.24451e-06
11 *204:11 0.00226489

*RES
1 *204:13 *933:D 1.4
2 *204:11 *204:13 1.4
3 *204:10 *683:Q 1.4
4 *204:9 *204:11 12.3046
5 *204:8 *204:10 0.0385705
6 *204:7 *204:9 1.4
7 *204:7 *204:8 0.192852
8 *204:6 *204:7 1.98852
9 *204:5 *204:6 1.4
10 *204:4 *204:5 1.49146
11 *204:3 *204:4 1.4
12 *204:2 *204:3 0.149996
13 *204:1 *204:2 0.00428561
14 *755:A *204:1 1.4
*END

*D_NET *205 0.0085444

*CONN
*I *890:A I *C 5.075 44.515 *L 0.0208 *D CLKINVX8
*I *885:A I *C 5.655 88.885 *L 0.0208 *D CLKINVX8
*I *933:QN O *C 18.415 43.935 *L 0 *D SDFFRX1

*CAP
1 *205:2 4.3824e-05
2 *205:3 4.3824e-05
3 *205:4 0.00326425
4 *205:5 0.00321873
5 *205:6 4.55181e-05
6 *205:8 0.000964128
7 *205:9 0.000964128

*RES
1 *205:10 *933:QN 1.4
2 *205:9 *205:10 1.4
3 *205:8 *205:9 5.46845
4 *205:6 *205:8 1.4
5 *205:5 *885:A 1.4
6 *205:4 *205:6 0.248577
7 *205:4 *205:5 19.0154
8 *205:3 *205:4 1.4
9 *205:2 *205:3 0.248566
10 *205:1 *205:2 1.4
11 *890:A *205:1 1.4
*END

*D_NET *206 0.00659276

*CONN
*I *868:D I *C 88.015 73.515 *L 0.00278 *D SDFFRHQX8
*I *659:Q O *C 68.295 59.595 *L 0 *D SDFFRHQX1
*I *575:SI I *C 57.855 62.785 *L 0.00276 *D SDFFRHQX1

*CAP
1 *206:2 0.00136248
2 *206:3 0.00136248
3 *206:4 0.000823015
4 *206:5 0.000823015
5 *206:6 6.6631e-05
6 *206:7 0.000866202
7 *206:8 0.00024468
8 *206:9 0.000799571
9 *206:10 0.00024468

*RES
1 *206:11 *575:SI 1.4
2 *206:10 *659:Q 1.4
3 *206:9 *206:11 1.4
4 *206:8 *206:10 1.36711
5 *206:7 *206:9 4.47419
6 *206:7 *206:8 1.4
7 *206:6 *206:7 0.372849
8 *206:5 *206:6 1.4
9 *206:4 *206:5 4.59846
10 *206:3 *206:4 1.4
11 *206:2 *206:3 8.07838
12 *206:1 *206:2 1.4
13 *868:D *206:1 1.4
*END

*D_NET *207 0.00273764

*CONN
*I *916:SI I *C 16.095 26.535 *L 0.00268 *D SDFFRHQX4
*I *941:Q O *C 22.475 26.535 *L 0 *D SDFFRHQX4
*I *525:D I *C 18.705 36.975 *L 0.00276 *D SDFFRHQX1

*CAP
1 *207:1 2.2759e-05
2 *207:2 2.2759e-05
3 *207:3 0.00021912
4 *207:4 0.00021912
5 *207:5 2.2759e-05
6 *207:6 0.000842085
7 *207:7 0.000262944
8 *207:8 0.000819326
9 *207:9 0.000262944
10 *207:10 2.1912e-05
11 *207:12 2.1912e-05

*RES
1 *207:14 *525:D 1.4
2 *207:12 *207:14 1.4
3 *207:11 *941:Q 1.4
4 *207:10 *207:12 0.124283
5 *207:9 *207:11 1.4
6 *207:8 *207:10 1.4
7 *207:7 *207:9 1.4914
8 *207:6 *207:8 4.47439
9 *207:6 *207:7 1.4
10 *207:5 *207:6 0.124289
11 *207:4 *207:5 1.4
12 *207:3 *207:4 1.24283
13 *207:2 *207:3 1.4
14 *207:1 *207:2 0.124289
15 *916:SI *207:1 1.4
*END

*D_NET *208 0.0024965

*CONN
*I *928:SI I *C 19.285 31.755 *L 0.00268 *D SDFFRHQX4
*I *525:Q O *C 25.665 37.265 *L 0 *D SDFFRHQX1
*I *870:D I *C 17.545 39.005 *L 0.00174 *D SDFFRX1

*CAP
1 *208:2 6.5736e-05
2 *208:3 6.5736e-05
3 *208:4 0.000432422
4 *208:5 0.000432422
5 *208:6 0.000613536
6 *208:7 0.0005478
7 *208:8 6.5736e-05
8 *208:10 0.000136554
9 *208:12 0.000136554

*RES
1 *208:12 *870:D 1.4
2 *208:10 *208:12 0.745732
3 *208:9 *525:Q 1.4
4 *208:8 *208:10 1.4
5 *208:7 *208:9 1.4
6 *208:6 *208:8 0.372849
7 *208:6 *208:7 3.10708
8 *208:5 *208:6 1.4
9 *208:4 *208:5 2.36149
10 *208:3 *208:4 1.4
11 *208:2 *208:3 0.372849
12 *208:1 *208:2 1.4
13 *928:SI *208:1 1.4
*END

*D_NET *209 0.0124053

*CONN
*I *859:A I *C 67.715 75.835 *L 0.0208 *D CLKINVX8
*I *870:QN O *C 25.665 38.715 *L 0 *D SDFFRX1
*I *860:A I *C 25.375 49.735 *L 0.0208 *D CLKINVX8

*CAP
1 *209:2 0.00334741
2 *209:3 0.00334741
3 *209:4 0.00196848
4 *209:5 0.00283332
5 *209:6 2.1912e-05
6 *209:7 0.000864844
7 *209:8 2.1912e-05

*RES
1 *209:10 *860:A 1.4
2 *209:8 *209:10 1.4
3 *209:7 *870:QN 1.4
4 *209:6 *209:8 0.124283
5 *209:5 *209:7 4.72297
6 *209:5 *209:6 1.4
7 *209:4 *209:5 11.1855
8 *209:3 *209:4 1.4
9 *209:2 *209:3 18.021
10 *209:1 *209:2 1.4
11 *859:A *209:1 1.4
*END

*D_NET *210 0.00173496

*CONN
*I *563:A1 I *C 57.275 10.585 *L 0.00267 *D OAI31X1
*I *909:Q O *C 61.335 5.655 *L 0 *D SDFFRHQX4
*I *925:SI I *C 64.525 5.655 *L 0.00268 *D SDFFRHQX4

*CAP
1 *210:1 0.000298535
2 *210:2 0.000298535
3 *210:3 0.000282783
4 *210:4 0.000282783
5 *210:5 6.39719e-05
6 *210:6 6.39719e-05
7 *210:7 0.000222187
8 *210:9 0.000222187

*RES
1 *210:10 *925:SI 1.4
2 *210:9 *210:10 1.4
3 *210:7 *210:9 1.36717
4 *210:6 *909:Q 1.4
5 *210:6 *210:7 1.4
6 *210:5 *210:6 0.372848
7 *210:4 *210:5 1.4
8 *210:3 *210:4 1.74004
9 *210:2 *210:3 1.4
10 *210:1 *210:2 1.73996
11 *563:A1 *210:1 1.4
*END

*D_NET *211 0.00590627

*CONN
*I *648:D I *C 76.415 57.855 *L 0.00276 *D SDFFRHQX1
*I *914:SI I *C 77.285 23.345 *L 0.00268 *D SDFFRHQX4
*I *954:Q O *C 77.285 21.315 *L 0 *D SDFFRHQX4

*CAP
1 *211:2 6.6631e-05
2 *211:3 6.6631e-05
3 *211:4 0.00273724
4 *211:5 0.00273724
5 *211:7 0.000149268
6 *211:9 0.000149268

*RES
1 *211:9 *954:Q 1.4
2 *211:7 *211:9 0.869979
3 *211:7 *914:SI 1.4
4 *211:6 *211:7 1.4
5 *211:5 *211:6 1.4
6 *211:4 *211:5 14.7896
7 *211:3 *211:4 1.4
8 *211:2 *211:3 0.372849
9 *211:1 *211:2 1.4
10 *648:D *211:1 1.4
*END

*D_NET *212 0.00133435

*CONN
*I *647:SI I *C 68.295 57.565 *L 0.00276 *D SDFFRHQX1
*I *648:Q O *C 69.455 58.145 *L 0 *D SDFFRHQX1
*I *858:D I *C 68.875 65.105 *L 0.00278 *D SDFFRHQX8

*CAP
1 *212:1 4.44873e-05
2 *212:2 4.44873e-05
3 *212:3 4.44206e-05
4 *212:4 8.88413e-05
5 *212:5 4.44206e-05
6 *212:6 0.000533847
7 *212:8 0.000533847

*RES
1 *212:8 *858:D 1.4
2 *212:7 *648:Q 1.4
3 *212:6 *212:8 2.98278
4 *212:5 *212:7 1.4
5 *212:4 *212:6 1.4
6 *212:4 *212:5 0.248566
7 *212:3 *212:4 0.248566
8 *212:2 *212:3 1.4
9 *212:1 *212:2 0.248565
10 *647:SI *212:1 1.4
*END

*D_NET *213 0.000327012

*CONN
*I *933:SI I *C 27.985 44.225 *L 0.00168 *D SDFFRX1
*I *964:Q O *C 27.985 42.195 *L 0 *D SDFFRX1

*CAP
1 *213:1 0.000163506
2 *213:2 0.000163506

*RES
1 *213:2 *964:Q 1.4
2 *213:1 *213:2 0.870021
3 *933:SI *213:1 1.4
*END

*D_NET *214 0.000714737

*CONN
*I *667:SI I *C 14.645 49.735 *L 0.00276 *D SDFFRHQX1
*I *959:Q O *C 16.965 47.415 *L 0 *D SDFFRX1

*CAP
1 *214:2 6.5736e-05
2 *214:3 6.5736e-05
3 *214:4 0.000182072
4 *214:5 0.000182072
5 *214:6 0.00010956
6 *214:7 0.00010956

*RES
1 *214:8 *959:Q 1.4
2 *214:7 *214:8 1.4
3 *214:6 *214:7 0.621415
4 *214:5 *214:6 1.4
5 *214:4 *214:5 0.99431
6 *214:3 *214:4 1.4
7 *214:2 *214:3 0.372849
8 *214:1 *214:2 1.4
9 *667:SI *214:1 1.4
*END

*D_NET *215 0.00146822

*CONN
*I *959:SI I *C 25.375 47.415 *L 0.00168 *D SDFFRX1
*I *933:Q O *C 19.575 44.225 *L 0 *D SDFFRX1

*CAP
1 *215:1 2.2759e-05
2 *215:2 2.2759e-05
3 *215:3 0.00043824
4 *215:4 0.00043824
5 *215:5 0.000273109
6 *215:6 0.000273109

*RES
1 *215:6 *933:Q 1.4
2 *215:5 *215:6 1.49146
3 *215:4 *215:5 1.4
4 *215:3 *215:4 2.48566
5 *215:2 *215:3 1.4
6 *215:1 *215:2 0.124289
7 *959:SI *215:1 1.4
*END

*D_NET *216 0.00165041

*CONN
*I *856:SI I *C 55.535 86.275 *L 0.00271 *D SDFFRHQX8
*I *895:Q O *C 49.735 80.765 *L 0 *D SDFFRX1

*CAP
1 *216:1 0.000357141
2 *216:2 0.000357141
3 *216:3 0.000426105
4 *216:4 0.000426105
5 *216:5 4.19564e-05
6 *216:6 4.19564e-05

*RES
1 *216:6 *895:Q 1.4
2 *216:5 *216:6 0.248566
3 *216:4 *216:5 1.4
4 *216:3 *216:4 2.48566
5 *216:2 *216:3 1.4
6 *216:1 *216:2 2.11291
7 *856:SI *216:1 1.4
*END

*D_NET *217 0.00164543

*CONN
*I *588:SI I *C 58.725 57.565 *L 0.00276 *D SDFFRHQX1
*I *882:Q O *C 56.115 65.105 *L 0 *D SDFFRX1

*CAP
1 *217:1 2.22436e-05
2 *217:2 2.22436e-05
3 *217:3 0.000199893
4 *217:4 0.000199893
5 *217:5 0.000600578
6 *217:6 0.000600578

*RES
1 *217:6 *882:Q 1.4
2 *217:5 *217:6 3.35563
3 *217:4 *217:5 1.4
4 *217:3 *217:4 1.11855
5 *217:2 *217:3 1.4
6 *217:1 *217:2 0.124283
7 *588:SI *217:1 1.4
*END

*D_NET *218 0.000364145

*CONN
*I *669:SI I *C 16.965 41.905 *L 0.00276 *D SDFFRHQX1
*I *877:Q O *C 16.965 44.225 *L 0 *D SDFFRX1

*CAP
1 *218:1 0.000182072
2 *218:2 0.000182072

*RES
1 *218:2 *877:Q 1.4
2 *218:1 *218:2 0.99431
3 *669:SI *218:1 1.4
*END

*D_NET *219 0.000942327

*CONN
*I *877:SI I *C 8.555 44.225 *L 0.00168 *D SDFFRX1
*I *876:Q O *C 6.235 47.415 *L 0 *D SDFFRX1

*CAP
1 *219:1 0.000273109
2 *219:2 0.000273109
3 *219:3 0.000175296
4 *219:4 0.000175296
5 *219:5 2.2759e-05
6 *219:6 2.2759e-05

*RES
1 *219:6 *876:Q 1.4
2 *219:5 *219:6 0.124289
3 *219:4 *219:5 1.4
4 *219:3 *219:4 0.994264
5 *219:2 *219:3 1.4
6 *219:1 *219:2 1.49146
7 *877:SI *219:1 1.4
*END

*D_NET *220 0.0042769

*CONN
*I *872:SI I *C 17.835 60.175 *L 0.00271 *D SDFFRHQX8
*I *870:Q O *C 24.505 39.005 *L 0 *D SDFFRX1

*CAP
1 *220:1 0.00163447
2 *220:2 0.00163447
3 *220:3 0.000503976
4 *220:4 0.000503976

*RES
1 *220:5 *870:Q 1.4
2 *220:4 *220:5 1.4
3 *220:3 *220:4 2.85851
4 *220:2 *220:3 1.4
5 *220:1 *220:2 9.07291
6 *872:SI *220:1 1.4
*END

*D_NET *221 0.00162407

*CONN
*I *564:B0 I *C 52.055 23.635 *L 0.0028 *D OAI211X1
*I *548:A1 I *C 49.735 25.955 *L 0.00166 *D OAI21XL
*I *549:SI I *C 48.865 23.635 *L 0.00276 *D SDFFRHQX1
*I *537:Q O *C 47.415 21.605 *L 0 *D SDFFRHQX1

*CAP
1 *221:2 0.000169252
2 *221:3 0.000169252
3 *221:4 0.000322861
4 *221:5 0.000172193
5 *221:6 0.000150669
6 *221:8 6.34694e-05
7 *221:9 0.000169252
8 *221:10 0.000150669
9 *221:11 0.000105782
10 *221:12 0.000150669

*RES
1 *221:13 *537:Q 1.4
2 *221:12 *549:SI 1.4
3 *221:11 *221:13 1.4
4 *221:10 *221:12 0.870019
5 *221:9 *221:11 0.621442
6 *221:9 *221:10 1.4
7 *221:8 *221:9 0.372865
8 *221:6 *221:8 1.4
9 *221:5 *548:A1 1.4
10 *221:4 *221:6 0.870019
11 *221:4 *221:5 0.994307
12 *221:3 *221:4 1.4
13 *221:2 *221:3 0.994307
14 *221:1 *221:2 1.4
15 *564:B0 *221:1 1.4
*END

*D_NET *222 0.00460219

*CONN
*I *627:B0 I *C 44.225 49.445 *L 0.00277 *D AOI31X1
*I *626:A0 I *C 41.325 44.515 *L 0.00261 *D AOI31X1
*I *582:B0 I *C 40.745 47.415 *L 0.00166 *D AOI21XL
*I *580:SI I *C 33.495 54.955 *L 0.00276 *D SDFFRHQX1
*I *579:Q O *C 30.595 49.155 *L 0 *D SDFFRHQX1

*CAP
1 *222:1 2.3358e-05
2 *222:2 2.3358e-05
3 *222:3 0.000252792
4 *222:4 0.000252792
5 *222:5 0.000397086
6 *222:6 2.3358e-05
7 *222:7 0.000373728
8 *222:8 2.29811e-05
9 *222:9 2.29811e-05
10 *222:10 0.000459622
11 *222:11 2.29811e-05
12 *222:12 0.000163506
13 *222:13 0.00043664
14 *222:15 0.000163506
15 *222:16 0.000472156
16 *222:19 0.000448798
17 *222:20 2.3358e-05
18 *222:21 0.000141897
19 *222:22 0.000367697
20 *222:23 0.000141897
21 *222:24 0.000367697

*RES
1 *222:26 *579:Q 1.4
2 *222:25 *580:SI 1.4
3 *222:24 *222:26 1.4
4 *222:23 *222:25 1.4
5 *222:22 *222:24 1.98862
6 *222:21 *222:23 0.745698
7 *222:20 *222:22 1.4
8 *222:19 *222:21 1.4
9 *222:16 *222:20 0.124289
10 *222:16 *222:19 2.36143
11 *222:15 *582:B0 1.4
12 *222:14 *626:A0 1.4
13 *222:13 *222:16 1.4
14 *222:12 *222:15 0.870021
15 *222:11 *222:14 1.4
16 *222:10 *222:13 2.36149
17 *222:10 *222:12 1.4
18 *222:9 *222:11 0.124289
19 *222:8 *222:10 0.124289
20 *222:7 *222:9 1.4
21 *222:6 *222:8 1.4
22 *222:5 *222:7 1.98862
23 *222:5 *222:6 0.124289
24 *222:4 *222:5 1.4
25 *222:3 *222:4 1.36718
26 *222:2 *222:3 1.4
27 *222:1 *222:2 0.124289
28 *627:B0 *222:1 1.4
*END

*D_NET *223 0.00142443

*CONN
*I *682:SI I *C 61.625 42.195 *L 0.00161 *D SDFFRXL
*I *683:QN O *C 54.085 43.935 *L 0 *D SDFFRXL

*CAP
1 *223:2 0.000572155
2 *223:3 0.000572155
3 *223:4 0.000140061
4 *223:5 0.000140061

*RES
1 *223:5 *683:QN 1.4
2 *223:4 *223:5 0.745696
3 *223:3 *223:4 1.4
4 *223:2 *223:3 3.23151
5 *223:1 *223:2 1.4
6 *682:SI *223:1 1.4
*END

*D_NET *224 0.00312778

*CONN
*I *812:B0 I *C 33.785 63.075 *L 0.00278 *D AOI211X1
*I *821:Q O *C 36.685 52.925 *L 0 *D SDFFRHQX1
*I *602:SI I *C 34.945 47.125 *L 0.00276 *D SDFFRHQX1

*CAP
1 *224:2 7.09486e-05
2 *224:3 7.09486e-05
3 *224:4 0.000835939
4 *224:5 0.00130441
5 *224:6 0.000165547
6 *224:7 0.000468474
7 *224:8 0.000165547
8 *224:9 2.29811e-05
9 *224:11 2.29811e-05

*RES
1 *224:13 *602:SI 1.4
2 *224:11 *224:13 1.4
3 *224:10 *821:Q 1.4
4 *224:9 *224:11 0.124289
5 *224:8 *224:10 1.4
6 *224:7 *224:9 1.4
7 *224:6 *224:8 0.869981
8 *224:5 *224:7 2.48576
9 *224:5 *224:6 1.4
10 *224:4 *224:5 4.34989
11 *224:3 *224:4 1.4
12 *224:2 *224:3 0.372849
13 *224:1 *224:2 1.4
14 *812:B0 *224:1 1.4
*END

*D_NET *225 0.00640775

*CONN
*I *647:D I *C 66.845 57.855 *L 0.00276 *D SDFFRHQX1
*I *954:SI I *C 67.425 21.315 *L 0.00268 *D SDFFRHQX4
*I *955:Q O *C 66.555 18.125 *L 0 *D SDFFRHQX4

*CAP
1 *225:2 2.22103e-05
2 *225:3 2.22103e-05
3 *225:4 0.00288651
4 *225:5 0.00309974
5 *225:6 2.01988e-05
6 *225:7 0.00021324
7 *225:8 2.01988e-05
8 *225:9 4.03976e-05
9 *225:11 4.03976e-05
10 *225:13 2.1324e-05
11 *225:14 2.1324e-05

*RES
1 *225:14 *955:Q 1.4
2 *225:13 *225:14 0.124283
3 *225:11 *225:13 1.4
4 *225:10 *954:SI 1.4
5 *225:9 *225:11 0.248577
6 *225:8 *225:10 1.4
7 *225:7 *225:9 1.4
8 *225:6 *225:8 0.124288
9 *225:5 *225:7 1.24283
10 *225:5 *225:6 1.4
11 *225:4 *225:5 15.6596
12 *225:3 *225:4 1.4
13 *225:2 *225:3 0.124283
14 *225:1 *225:2 1.4
15 *647:D *225:1 1.4
*END

*D_NET *226 0.00289087

*CONN
*I *857:D I *C 56.985 70.325 *L 0.00278 *D SDFFRHQX8
*I *647:Q O *C 59.885 58.145 *L 0 *D SDFFRHQX1
*I *600:SI I *C 58.725 54.955 *L 0.00276 *D SDFFRHQX1

*CAP
1 *226:2 2.22103e-05
2 *226:3 2.22103e-05
3 *226:4 0.000934233
4 *226:5 0.000934233
5 *226:6 6.6631e-05
6 *226:7 0.000199893
7 *226:8 0.000133262
8 *226:9 0.00024468
9 *226:11 0.00024468
10 *226:13 4.44206e-05
11 *226:14 4.44206e-05

*RES
1 *226:15 *600:SI 1.4
2 *226:14 *226:15 1.4
3 *226:13 *226:14 0.248566
4 *226:11 *226:13 1.4
5 *226:10 *647:Q 1.4
6 *226:9 *226:11 1.36711
7 *226:8 *226:10 1.4
8 *226:7 *226:9 1.4
9 *226:7 *226:8 0.745698
10 *226:6 *226:7 0.372849
11 *226:5 *226:6 1.4
12 *226:4 *226:5 5.21987
13 *226:3 *226:4 1.4
14 *226:2 *226:3 0.124283
15 *226:1 *226:2 1.4
16 *857:D *226:1 1.4
*END

*D_NET *227 0.00373265

*CONN
*I *577:SI I *C 52.925 73.225 *L 0.00276 *D SDFFRHQX1
*I *840:B I *C 59.595 78.445 *L 0.00184 *D MX2X1
*I *895:D I *C 56.695 80.765 *L 0.00174 *D SDFFRX1
*I *839:Q O *C 65.105 75.255 *L 0 *D SDFFRHQX1

*CAP
1 *227:1 2.22436e-05
2 *227:2 2.22436e-05
3 *227:3 0.000310944
4 *227:4 0.000310944
5 *227:5 0.000464028
6 *227:6 0.000464028
7 *227:7 2.1362e-05
8 *227:8 0.000192258
9 *227:9 0.000170896
10 *227:10 0.00012605
11 *227:11 4.20166e-05
12 *227:12 0.00012605
13 *227:13 0.000286079
14 *227:14 4.2724e-05
15 *227:16 0.000244062
16 *227:17 4.2724e-05
17 *227:18 0.000421996
18 *227:20 0.000421996

*RES
1 *227:22 *839:Q 1.4
2 *227:20 *227:22 1.4
3 *227:19 *895:D 1.4
4 *227:18 *227:20 2.36138
5 *227:17 *227:19 1.4
6 *227:16 *227:18 1.4
7 *227:14 *227:17 0.248566
8 *227:13 *227:16 1.36711
9 *227:13 *840:B 1.4
10 *227:12 *227:14 1.4
11 *227:11 *227:13 0.248578
12 *227:10 *227:12 0.745732
13 *227:9 *227:11 1.4
14 *227:8 *227:10 1.4
15 *227:8 *227:9 0.994264
16 *227:7 *227:8 0.124283
17 *227:6 *227:7 1.4
18 *227:5 *227:6 2.60995
19 *227:4 *227:5 1.4
20 *227:3 *227:4 1.73996
21 *227:2 *227:3 1.4
22 *227:1 *227:2 0.124283
23 *577:SI *227:1 1.4
*END

*D_NET *228 0.00679018

*CONN
*I *884:A I *C 5.945 78.445 *L 0.0208 *D CLKINVX8
*I *895:QN O *C 48.575 80.475 *L 0 *D SDFFRX1
*I *883:A I *C 10.585 86.275 *L 0.0208 *D CLKINVX8

*CAP
1 *228:2 0.00021842
2 *228:3 0.00021842
3 *228:4 0.000125705
4 *228:5 0.000125705
5 *228:6 7.28068e-05
6 *228:7 0.00269181
7 *228:8 0.002619
8 *228:9 0.000359158
9 *228:11 0.000359158

*RES
1 *228:11 *883:A 1.4
2 *228:10 *895:QN 1.4
3 *228:9 *228:11 2.48567
4 *228:8 *228:10 1.4
5 *228:7 *228:9 1.4
6 *228:7 *228:8 16.2811
7 *228:6 *228:7 0.497134
8 *228:5 *228:6 1.4
9 *228:4 *228:5 0.869985
10 *228:3 *228:4 1.4
11 *228:2 *228:3 1.4914
12 *228:1 *228:2 1.4
13 *884:A *228:1 1.4
*END

*D_NET *229 0.00213244

*CONN
*I *856:D I *C 54.085 85.985 *L 0.00278 *D SDFFRHQX8
*I *839:SI I *C 56.695 75.835 *L 0.00276 *D SDFFRHQX1
*I *835:Q O *C 58.435 84.245 *L 0 *D SDFFRHQX1

*CAP
1 *229:1 0.000105041
2 *229:2 0.000105041
3 *229:3 0.000192258
4 *229:4 0.000192258
5 *229:5 2.10083e-05
6 *229:6 0.000640749
7 *229:7 0.000128172
8 *229:8 0.000619741
9 *229:9 0.000128172

*RES
1 *229:11 *835:Q 1.4
2 *229:9 *229:11 1.4
3 *229:8 *839:SI 1.4
4 *229:7 *229:9 0.745698
5 *229:6 *229:8 3.60432
6 *229:6 *229:7 1.4
7 *229:5 *229:6 0.124289
8 *229:4 *229:5 1.4
9 *229:3 *229:4 1.11855
10 *229:2 *229:3 1.4
11 *229:1 *229:2 0.621444
12 *856:D *229:1 1.4
*END

*D_NET *230 0.0081104

*CONN
*I *842:A0 I *C 36.105 18.415 *L 0.00162 *D AO22X1
*I *845:A0 I *C 60.175 18.125 *L 0.00271 *D OAI21X1
*I *847:B I *C 32.335 18.125 *L 0.00276 *D NAND3BX1
*I *853:C I *C 63.945 18.415 *L 0.00278 *D NOR3X1
*I *908:SI I *C 75.835 7.685 *L 0.00268 *D SDFFRHQX4
*I *925:Q O *C 74.385 5.655 *L 0 *D SDFFRHQX4

*CAP
1 *230:1 2.15241e-05
2 *230:2 2.15241e-05
3 *230:3 0.00200469
4 *230:4 0.00199224
5 *230:5 0.000275034
6 *230:6 0.000929145
7 *230:9 0.000666561
8 *230:10 2.1324e-05
9 *230:13 0.000767662
10 *230:14 2.1324e-05
11 *230:15 0.000767662
12 *230:17 6.05964e-05
13 *230:18 0.000161591
14 *230:19 0.000100994
15 *230:20 0.000149268
16 *230:22 0.000149268

*RES
1 *230:22 *925:Q 1.4
2 *230:21 *908:SI 1.4
3 *230:20 *230:22 0.869979
4 *230:19 *230:21 1.4
5 *230:18 *230:20 1.4
6 *230:18 *230:19 0.621442
7 *230:17 *230:18 0.372865
8 *230:15 *230:17 1.4
9 *230:14 *853:C 1.4
10 *230:13 *230:15 4.47418
11 *230:10 *230:14 0.124283
12 *230:9 *230:13 1.4
13 *230:8 *847:B 1.4
14 *230:7 *845:A0 1.4
15 *230:6 *230:10 1.4
16 *230:6 *230:9 4.10151
17 *230:5 *230:8 1.4
18 *230:4 *230:7 1.4
19 *230:4 *230:6 1.61575
20 *230:3 *230:5 1.61575
21 *230:3 *230:4 10.3159
22 *230:2 *230:3 1.4
23 *230:1 *230:2 0.124288
24 *842:A0 *230:1 1.4
*END

*D_NET *231 0.00247089

*CONN
*I *853:B I *C 63.655 18.125 *L 0.00272 *D NOR3X1
*I *937:Q O *C 75.835 16.095 *L 0 *D SDFFRHQX4
*I *855:A I *C 63.935 15.8675 *L 0.00163 *D INVXL
*I *955:SI I *C 76.415 18.125 *L 0.00268 *D SDFFRHQX4

*CAP
1 *231:1 0.000170592
2 *231:2 0.000170592
3 *231:3 2.01988e-05
4 *231:4 0.00084835
5 *231:5 0.000828151
6 *231:6 4.77951e-06
7 *231:7 2.1324e-05
8 *231:8 5.51482e-06
9 *231:9 0.000170592
10 *231:10 7.35309e-07
11 *231:11 0.000149268
12 *231:14 4.03976e-05
13 *231:15 4.03976e-05

*RES
1 *231:16 *955:SI 1.4
2 *231:15 *231:16 1.4
3 *231:14 *231:15 0.248577
4 *231:11 *231:14 1.4
5 *231:10 *855:A 1.4
6 *231:9 *937:Q 1.4
7 *231:9 *231:11 0.869979
8 *231:8 *231:10 0.00428561
9 *231:7 *231:9 0.124283
10 *231:6 *231:8 0.0278565
11 *231:5 *231:7 1.4
12 *231:4 *231:6 1.4
13 *231:4 *231:5 5.09582
14 *231:3 *231:4 0.124288
15 *231:2 *231:3 1.4
16 *231:1 *231:2 0.994261
17 *853:B *231:1 1.4
*END

*D_NET *232 0.00251162

*CONN
*I *852:B0 I *C 61.045 15.805 *L 0.00277 *D AOI21X1
*I *937:SI I *C 65.975 16.095 *L 0.00268 *D SDFFRHQX4
*I *853:A I *C 63.365 18.125 *L 0.00259 *D NOR3X1
*I *908:Q O *C 65.975 7.685 *L 0 *D SDFFRHQX4

*CAP
1 *232:1 2.1324e-05
2 *232:2 2.1324e-05
3 *232:3 0.000201988
4 *232:4 0.000201988
5 *232:5 4.26479e-05
6 *232:6 0.000191916
7 *232:7 0.000141392
8 *232:8 0.000149268
9 *232:9 0.000161591
10 *232:10 4.03976e-05
11 *232:11 2.01988e-05
12 *232:13 4.03976e-05
13 *232:14 0.000618395
14 *232:17 0.000618395
15 *232:19 2.01988e-05
16 *232:20 2.01988e-05

*RES
1 *232:21 *908:Q 1.4
2 *232:20 *232:21 1.4
3 *232:19 *232:20 0.124288
4 *232:17 *232:19 1.4
5 *232:16 *853:A 1.4
6 *232:14 *232:17 3.6042
7 *232:13 *232:16 1.4
8 *232:12 *937:SI 1.4
9 *232:11 *232:14 1.4
10 *232:10 *232:13 0.248577
11 *232:9 *232:12 1.4
12 *232:9 *232:11 0.124288
13 *232:8 *232:10 1.4
14 *232:7 *232:9 0.870018
15 *232:6 *232:8 0.869979
16 *232:6 *232:7 1.4
17 *232:5 *232:6 0.248565
18 *232:4 *232:5 1.4
19 *232:3 *232:4 1.24288
20 *232:2 *232:3 1.4
21 *232:1 *232:2 0.124283
22 *852:B0 *232:1 1.4
*END

*D_NET *233 0.00191934

*CONN
*I *909:SI I *C 51.475 5.655 *L 0.00268 *D SDFFRHQX4
*I *563:A0 I *C 56.405 10.875 *L 0.00268 *D OAI31X1
*I *924:Q O *C 57.565 12.905 *L 0 *D SDFFRHQX4

*CAP
1 *233:2 0.000345774
2 *233:3 0.000345774
3 *233:4 0.000383831
4 *233:5 0.000533099
5 *233:6 0.000149268
6 *233:8 8.07953e-05
7 *233:9 8.07953e-05

*RES
1 *233:10 *924:Q 1.4
2 *233:9 *233:10 1.4
3 *233:8 *233:9 0.497153
4 *233:6 *233:8 1.4
5 *233:5 *563:A0 1.4
6 *233:5 *233:6 0.869979
7 *233:4 *233:5 2.23709
8 *233:3 *233:4 1.4
9 *233:2 *233:3 2.1129
10 *233:1 *233:2 1.4
11 *909:SI *233:1 1.4
*END

*D_NET *234 0.00268936

*CONN
*I *534:SI I *C 56.985 31.465 *L 0.00276 *D SDFFRHQX1
*I *566:D I *C 54.375 31.755 *L 0.00166 *D NAND4XL
*I *535:A0 I *C 48.865 31.755 *L 0.00265 *D AOI21X1
*I *539:A I *C 46.545 31.755 *L 0.00162 *D NOR2XL
*I *529:Q O *C 43.645 28.275 *L 0 *D SDFFRHQX1

*CAP
1 *234:1 2.33434e-05
2 *234:2 2.33434e-05
3 *234:3 0.000198054
4 *234:4 0.000627381
5 *234:6 0.000613176
6 *234:9 0.000183849
7 *234:11 0.000280296
8 *234:13 0.000280296
9 *234:14 0.000229811
10 *234:15 0.000229811

*RES
1 *234:16 *529:Q 1.4
2 *234:15 *234:16 1.4
3 *234:14 *234:15 1.24289
4 *234:13 *234:14 1.4
5 *234:11 *234:13 1.49146
6 *234:11 *539:A 1.4
7 *234:9 *234:11 1.4
8 *234:8 *535:A0 1.4
9 *234:6 *234:9 0.99431
10 *234:6 *234:8 1.4
11 *234:5 *566:D 1.4
12 *234:4 *234:6 2.36149
13 *234:4 *234:5 1.4
14 *234:3 *234:4 1.1186
15 *234:2 *234:3 1.4
16 *234:1 *234:2 0.124283
17 *534:SI *234:1 1.4
*END

*D_NET *235 0.00453209

*CONN
*I *545:C I *C 51.765 33.785 *L 0.00289 *D NAND3BX1
*I *566:A I *C 55.245 32.045 *L 0.00152 *D NAND4XL
*I *531:A0 I *C 55.245 36.975 *L 0.00265 *D AOI21X1
*I *533:A I *C 54.665 39.005 *L 0.00162 *D NOR2XL
*I *528:SI I *C 43.935 39.295 *L 0.00276 *D SDFFRHQX1
*I *526:Q O *C 42.775 42.485 *L 0 *D SDFFRHQX1

*CAP
1 *235:1 4.67159e-05
2 *235:2 4.67159e-05
3 *235:3 0.000265534
4 *235:4 0.00028754
5 *235:5 2.20059e-05
6 *235:6 9.33737e-05
7 *235:7 0.000303465
8 *235:8 9.33737e-05
9 *235:9 0.000490212
10 *235:11 0.000186747
11 *235:12 2.20059e-05
12 *235:13 6.60178e-05
13 *235:14 2.20059e-05
14 *235:15 0.000908029
15 *235:17 2.33434e-05
16 *235:18 0.000956917
17 *235:20 2.33434e-05
18 *235:22 0.000114905
19 *235:25 0.000256938
20 *235:26 0.000256938
21 *235:27 2.29811e-05
22 *235:28 2.29811e-05

*RES
1 *235:29 *526:Q 1.4
2 *235:28 *235:29 1.4
3 *235:27 *235:28 0.124289
4 *235:26 *235:27 1.4
5 *235:25 *235:26 1.36718
6 *235:22 *235:25 1.4
7 *235:21 *528:SI 1.4
8 *235:20 *533:A 1.4
9 *235:18 *235:22 0.621444
10 *235:18 *235:21 1.4
11 *235:17 *235:20 0.124283
12 *235:16 *531:A0 1.4
13 *235:15 *235:18 4.59868
14 *235:15 *235:17 1.4
15 *235:14 *235:16 1.4
16 *235:13 *235:15 0.372866
17 *235:12 *235:14 0.124289
18 *235:11 *235:13 1.4
19 *235:9 *235:12 1.4
20 *235:9 *235:11 0.994261
21 *235:8 *566:A 1.4
22 *235:7 *235:9 1.61567
23 *235:6 *235:8 0.497131
24 *235:5 *235:7 1.4
25 *235:4 *235:6 1.4
26 *235:4 *235:5 0.124289
27 *235:3 *235:4 1.49146
28 *235:2 *235:3 1.4
29 *235:1 *235:2 0.248578
30 *545:C *235:1 1.4
*END

*D_NET *236 0.00295548

*CONN
*I *542:B I *C 54.665 33.785 *L 0.00284 *D NAND2BX1
*I *566:C I *C 54.665 31.755 *L 0.00164 *D NAND4XL
*I *545:B I *C 52.055 33.785 *L 0.00276 *D NAND3BX1
*I *529:SI I *C 52.055 28.855 *L 0.00276 *D SDFFRHQX1
*I *574:A I *C 48.865 34.365 *L 0.00183 *D CLKXOR2X1
*I *528:Q O *C 52.345 38.715 *L 0 *D SDFFRHQX1

*CAP
1 *236:1 2.33434e-05
2 *236:2 0.000163404
3 *236:3 0.000198541
4 *236:4 0.000140061
5 *236:5 0.000198541
6 *236:7 0.000397086
7 *236:8 9.34319e-05
8 *236:9 0.000373728
9 *236:10 7.00739e-05
10 *236:13 2.29811e-05
11 *236:14 0.000252792
12 *236:15 0.000327012
13 *236:16 0.000229811
14 *236:17 0.000327012
15 *236:18 2.3358e-05
16 *236:19 4.54746e-05
17 *236:20 2.3358e-05
18 *236:21 4.54746e-05

*RES
1 *236:23 *528:Q 1.4
2 *236:21 *236:23 1.4
3 *236:20 *574:A 1.4
4 *236:19 *236:21 0.248577
5 *236:18 *236:20 0.124289
6 *236:17 *236:19 1.4
7 *236:16 *236:18 1.4
8 *236:15 *236:17 1.74004
9 *236:14 *236:16 1.24289
10 *236:14 *236:15 1.4
11 *236:13 *236:14 0.124289
12 *236:10 *236:13 1.4
13 *236:9 *529:SI 1.4
14 *236:8 *545:B 1.4
15 *236:8 *236:10 0.372866
16 *236:7 *236:9 1.98862
17 *236:7 *236:8 0.124289
18 *236:5 *236:7 1.4
19 *236:4 *566:C 1.4
20 *236:3 *236:5 1.1186
21 *236:2 *236:4 0.745696
22 *236:2 *236:3 1.4
23 *236:1 *236:2 0.124283
24 *542:B *236:1 1.4
*END

*D_NET *237 0.00414222

*CONN
*I *532:SI I *C 57.565 23.635 *L 0.00276 *D SDFFRHQX1
*I *555:B I *C 56.405 33.785 *L 0.00284 *D NAND2BX1
*I *566:B I *C 54.955 32.045 *L 0.00158 *D NAND4XL
*I *551:A0 I *C 60.755 33.785 *L 0.00265 *D AOI21X1
*I *554:A I *C 62.205 33.785 *L 0.00162 *D NOR2XL
*I *534:Q O *C 65.395 32.045 *L 0 *D SDFFRHQX1

*CAP
1 *237:2 2.01988e-05
2 *237:3 2.01988e-05
3 *237:4 0.000659794
4 *237:5 0.000659794
5 *237:6 0.00011003
6 *237:7 0.000220059
7 *237:8 0.000140061
8 *237:9 0.00011003
9 *237:10 0.000186747
10 *237:12 4.66869e-05
11 *237:15 0.000330089
12 *237:16 0.000418113
13 *237:17 0.00011003
14 *237:18 4.66869e-05
15 *237:19 2.20059e-05
16 *237:20 0.000163404
17 *237:21 4.66869e-05
18 *237:22 4.66869e-05
19 *237:23 0.000163404
20 *237:25 4.66869e-05
21 *237:26 0.000264071
22 *237:28 0.000264071
23 *237:29 2.33434e-05
24 *237:30 2.33434e-05

*RES
1 *237:30 *534:Q 1.4
2 *237:29 *237:30 0.124283
3 *237:28 *237:29 1.4
4 *237:26 *237:28 1.49146
5 *237:25 *554:A 1.4
6 *237:23 *237:26 1.4
7 *237:22 *237:25 0.248565
8 *237:21 *551:A0 1.4
9 *237:20 *237:23 0.869979
10 *237:19 *237:22 1.4
11 *237:18 *237:21 0.248565
12 *237:17 *237:20 1.4
13 *237:17 *237:19 0.124289
14 *237:16 *237:18 1.4
15 *237:16 *237:17 0.497155
16 *237:15 *237:16 1.86433
17 *237:12 *237:15 1.4
18 *237:11 *566:B 1.4
19 *237:10 *555:B 1.4
20 *237:10 *237:12 0.248565
21 *237:9 *237:11 1.4
22 *237:8 *237:10 0.745696
23 *237:7 *237:9 0.621444
24 *237:7 *237:8 1.4
25 *237:6 *237:7 0.621444
26 *237:5 *237:6 1.4
27 *237:4 *237:5 3.6042
28 *237:3 *237:4 1.4
29 *237:2 *237:3 0.124288
30 *237:1 *237:2 1.4
31 *532:SI *237:1 1.4
*END

*D_NET *238 0.00325286

*CONN
*I *568:A I *C 55.825 26.245 *L 0.00157 *D NAND2XL
*I *537:SI I *C 55.825 21.025 *L 0.00276 *D SDFFRHQX1
*I *570:A I *C 54.955 18.125 *L 0.00273 *D INVX1
*I *557:B I *C 53.21 18.755 *L 0.00164 *D MXI2XL
*I *538:Q O *C 50.605 16.385 *L 0 *D SDFFRHQX1
*I *564:A0 I *C 52.925 23.635 *L 0.00267 *D OAI211X1

*CAP
1 *238:1 0.000384841
2 *238:2 0.000534109
3 *238:4 0.000149268
4 *238:5 6.05964e-05
5 *238:6 0.000181789
6 *238:7 6.39719e-05
7 *238:8 0.000202467
8 *238:9 6.39719e-05
9 *238:10 1.76474e-05
10 *238:11 0.000102431
11 *238:13 1.80151e-05
12 *238:14 0.000172193
13 *238:15 2.11565e-05
14 *238:16 3.67654e-07
15 *238:17 0.000172193
16 *238:18 0.000344385
17 *238:20 0.000105782
18 *238:21 0.000344385
19 *238:22 0.000105782
20 *238:23 8.22318e-05
21 *238:24 2.15241e-05
22 *238:25 8.22318e-05
23 *238:26 2.15241e-05

*RES
1 *238:27 *564:A0 1.4
2 *238:26 *538:Q 1.4
3 *238:25 *238:27 1.4
4 *238:24 *238:26 0.124288
5 *238:23 *238:25 0.497153
6 *238:22 *238:24 1.4
7 *238:21 *238:23 1.4
8 *238:20 *238:22 0.621442
9 *238:18 *238:21 1.98861
10 *238:17 *238:20 1.4
11 *238:16 *557:B 1.4
12 *238:15 *238:18 1.4
13 *238:14 *238:17 0.994307
14 *238:13 *238:16 0.0021428
15 *238:11 *238:15 0.124288
16 *238:11 *238:14 1.4
17 *238:10 *238:13 0.102855
18 *238:9 *570:A 1.4
19 *238:8 *238:11 0.497153
20 *238:8 *238:10 1.4
21 *238:7 *238:9 0.372848
22 *238:6 *238:8 0.74573
23 *238:6 *238:7 1.4
24 *238:5 *238:6 0.372865
25 *238:4 *238:5 1.4
26 *238:2 *238:4 0.869979
27 *238:2 *537:SI 1.4
28 *238:1 *238:2 2.23709
29 *568:A *238:1 1.4
*END

*D_NET *239 0.00354463

*CONN
*I *569:B I *C 48.575 18.415 *L 0.00167 *D NAND2XL
*I *552:B0 I *C 45.675 18.125 *L 0.00165 *D AO22X1
*I *567:B I *C 42.775 18.415 *L 0.00365 *D XOR2XL
*I *547:Q O *C 34.365 21.605 *L 0 *D SDFFRHQX1
*I *546:SI I *C 42.485 26.245 *L 0.00276 *D SDFFRHQX1

*CAP
1 *239:1 4.30482e-05
2 *239:2 4.30482e-05
3 *239:3 0.000211565
4 *239:4 0.00042313
5 *239:5 6.45723e-05
6 *239:6 0.000232721
7 *239:7 6.45723e-05
8 *239:8 4.30482e-05
9 *239:9 2.11565e-05
10 *239:11 4.30482e-05
11 *239:12 0.000193717
12 *239:14 0.000193717
13 *239:15 4.2313e-05
14 *239:16 0.000592381
15 *239:17 0.000345302
16 *239:18 0.000550069
17 *239:19 0.000345302
18 *239:21 4.59622e-05
19 *239:23 4.59622e-05

*RES
1 *239:24 *546:SI 1.4
2 *239:23 *239:24 1.4
3 *239:21 *239:23 0.248577
4 *239:20 *547:Q 1.4
5 *239:19 *239:21 1.4
6 *239:18 *239:20 1.4
7 *239:17 *239:19 1.98861
8 *239:16 *239:18 3.2315
9 *239:16 *239:17 1.4
10 *239:15 *239:16 0.248577
11 *239:14 *239:15 1.4
12 *239:12 *239:14 1.1186
13 *239:11 *567:B 1.4
14 *239:9 *239:12 1.4
15 *239:8 *239:11 0.248577
16 *239:7 *552:B0 1.4
17 *239:6 *239:9 0.124288
18 *239:6 *239:8 1.4
19 *239:5 *239:7 0.372865
20 *239:4 *239:6 1.24288
21 *239:4 *239:5 1.4
22 *239:3 *239:4 1.24288
23 *239:2 *239:3 1.4
24 *239:1 *239:2 0.248577
25 *569:B *239:1 1.4
*END

*D_NET *240 0.00238791

*CONN
*I *553:S0 I *C 46.255 21.025 *L 0.00372 *D MXI2XL
*I *567:A I *C 43.935 18.705 *L 0.0018 *D XOR2XL
*I *569:A I *C 47.995 18.415 *L 0.00157 *D NAND2XL
*I *547:SI I *C 42.775 21.025 *L 0.00276 *D SDFFRHQX1
*I *549:Q O *C 40.455 23.055 *L 0 *D SDFFRHQX1

*CAP
1 *240:2 6.34694e-05
2 *240:3 6.34694e-05
3 *240:4 0.000172193
4 *240:5 0.000193717
5 *240:6 0.000190408
6 *240:7 2.15241e-05
7 *240:8 0.000232721
8 *240:9 6.34694e-05
9 *240:10 0.000193717
10 *240:11 4.2313e-05
11 *240:12 6.34694e-05
12 *240:13 0.000193717
13 *240:16 0.000126939
14 *240:19 0.000296191
15 *240:20 2.15241e-05
16 *240:21 0.000169252
17 *240:22 2.15241e-05
18 *240:23 0.000129145
19 *240:25 0.000129145

*RES
1 *240:25 *549:Q 1.4
2 *240:23 *240:25 0.74573
3 *240:22 *547:SI 1.4
4 *240:21 *240:23 1.4
5 *240:20 *240:22 0.124288
6 *240:19 *240:21 0.994307
7 *240:19 *240:20 1.4
8 *240:16 *240:19 0.74573
9 *240:15 *569:A 1.4
10 *240:14 *567:A 1.4
11 *240:13 *240:16 1.4
12 *240:12 *240:15 1.4
13 *240:11 *240:14 1.4
14 *240:10 *240:13 1.1186
15 *240:9 *240:12 0.372865
16 *240:8 *240:11 0.248577
17 *240:8 *240:10 1.4
18 *240:7 *240:9 1.4
19 *240:6 *240:8 1.1186
20 *240:5 *240:7 0.124288
21 *240:5 *240:6 1.4
22 *240:4 *240:5 0.994307
23 *240:3 *240:4 1.4
24 *240:2 *240:3 0.372865
25 *240:1 *240:2 1.4
26 *553:S0 *240:1 1.4
*END

*D_NET *241 0.00262476

*CONN
*I *550:A1N I *C 45.965 26.535 *L 0.00173 *D OAI2BB1XL
*I *559:A I *C 46.835 26.535 *L 0.00273 *D CLKINVX1
*I *552:A1 I *C 46.835 18.125 *L 0.00163 *D AO22X1
*I *548:B0 I *C 50.315 26.245 *L 0.00169 *D OAI21XL
*I *572:Y O *C 50.325 18.125 *L 0 *D NOR2BX1

*CAP
1 *241:2 6.89432e-05
2 *241:3 6.89432e-05
3 *241:4 2.3358e-05
4 *241:6 0.000626949
5 *241:7 0.000275773
6 *241:8 0.000646639
7 *241:9 0.000275773
8 *241:11 4.30482e-05
9 *241:13 0.000253878
10 *241:15 0.000253878
11 *241:16 4.30482e-05
12 *241:17 4.37904e-05
13 *241:18 7.4221e-07

*RES
1 *241:18 *572:Y 1.4
2 *241:17 *241:18 0.00428581
3 *241:16 *241:17 0.248577
4 *241:15 *241:16 1.4
5 *241:13 *241:15 1.49146
6 *241:12 *548:B0 1.4
7 *241:11 *241:13 1.4
8 *241:9 *241:12 1.4
9 *241:8 *241:11 0.248577
10 *241:8 *552:A1 1.4
11 *241:7 *241:9 1.49146
12 *241:6 *241:8 3.48008
13 *241:6 *241:7 1.4
14 *241:4 *241:6 0.124289
15 *241:4 *559:A 1.4
16 *241:3 *241:4 1.4
17 *241:2 *241:3 0.372866
18 *241:1 *241:2 1.4
19 *550:A1N *241:1 1.4
*END

*D_NET *242 0.000912418

*CONN
*I *543:B I *C 61.33 25.905 *L 0.00164 *D MXI2XL
*I *536:B0 I *C 59.885 28.565 *L 0.00262 *D OAI22X1
*I *571:Y O *C 62.1225 28.565 *L 0 *D CLKINVX1

*CAP
1 *242:1 3.67654e-07
2 *242:2 4.0442e-06
3 *242:3 3.67654e-06
4 *242:4 6.05964e-05
5 *242:5 6.05964e-05
6 *242:6 0.000209081
7 *242:7 0.000209081
8 *242:8 0.000176048
9 *242:9 0.000132036
10 *242:10 4.40119e-05
11 *242:11 6.43957e-06
12 *242:13 6.43957e-06

*RES
1 *242:13 *571:Y 1.4
2 *242:12 *536:B0 1.4
3 *242:11 *242:13 0.0342849
4 *242:10 *242:12 1.4
5 *242:9 *242:11 1.4
6 *242:8 *242:10 0.248578
7 *242:8 *242:9 0.745732
8 *242:7 *242:8 1.4
9 *242:6 *242:7 1.11854
10 *242:5 *242:6 1.4
11 *242:4 *242:5 0.372865
12 *242:3 *242:4 1.4
13 *242:2 *242:3 0.021428
14 *242:1 *242:2 0.0021428
15 *543:B *242:1 1.4
*END

*D_NET *243 0.00208355

*CONN
*I *561:A I *C 57.565 26.535 *L 0.00162 *D NOR2XL
*I *544:B0 I *C 56.985 18.125 *L 0.00262 *D OAI22X1
*I *570:Y O *C 55.3275 18.125 *L 0 *D INVX1
*I *557:A I *C 54.375 18.415 *L 0.0017 *D MXI2XL

*CAP
1 *243:1 0.000664072
2 *243:2 0.000664072
3 *243:3 4.03976e-05
4 *243:4 0.000161591
5 *243:5 4.26479e-05
6 *243:6 0.000181789
7 *243:7 4.26479e-05
8 *243:8 4.26479e-05
9 *243:9 6.05964e-05
10 *243:11 4.8898e-05
11 *243:12 6.39719e-05
12 *243:13 6.25012e-06
13 *243:14 6.39719e-05

*RES
1 *243:14 *557:A 1.4
2 *243:13 *570:Y 1.4
3 *243:12 *243:14 0.372848
4 *243:11 *243:13 0.0364277
5 *243:9 *243:12 1.4
6 *243:8 *243:11 0.248565
7 *243:7 *544:B0 1.4
8 *243:6 *243:9 0.372865
9 *243:6 *243:8 1.4
10 *243:5 *243:7 0.248565
11 *243:4 *243:6 0.74573
12 *243:4 *243:5 1.4
13 *243:3 *243:4 0.248577
14 *243:2 *243:3 1.4
15 *243:1 *243:2 3.85276
16 *561:A *243:1 1.4
*END

*D_NET *244 0.00348512

*CONN
*I *562:B I *C 57.275 28.565 *L 0.00165 *D OR2X1
*I *561:B I *C 57.855 26.245 *L 0.00171 *D NOR2XL
*I *557:S0 I *C 53.505 18.415 *L 0.00372 *D MXI2XL
*I *569:Y O *C 48.575 17.835 *L 0 *D NAND2XL

*CAP
1 *244:2 6.60178e-05
2 *244:3 6.60178e-05
3 *244:4 0.000140061
4 *244:5 0.000140061
5 *244:6 2.20059e-05
6 *244:7 0.000462612
7 *244:8 4.66869e-05
8 *244:9 0.000440607
9 *244:10 4.66869e-05
10 *244:11 0.000628783
11 *244:13 0.000671831
12 *244:14 0.000101473
13 *244:15 4.30482e-05
14 *244:16 0.000101473
15 *244:17 0.000253878
16 *244:19 0.000253878

*RES
1 *244:21 *569:Y 1.4
2 *244:19 *244:21 1.4
3 *244:18 *557:S0 1.4
4 *244:17 *244:19 1.49146
5 *244:16 *244:18 1.4
6 *244:15 *244:17 1.4
7 *244:14 *244:16 0.621442
8 *244:13 *244:15 0.248577
9 *244:13 *244:14 1.4
10 *244:11 *244:13 3.60436
11 *244:10 *561:B 1.4
12 *244:9 *244:11 1.4
13 *244:8 *244:10 0.248565
14 *244:7 *244:9 2.48577
15 *244:7 *244:8 1.4
16 *244:6 *244:7 0.124289
17 *244:5 *244:6 1.4
18 *244:4 *244:5 0.745696
19 *244:3 *244:4 1.4
20 *244:2 *244:3 0.372866
21 *244:1 *244:2 1.4
22 *562:B *244:1 1.4
*END

*D_NET *245 0.000326808

*CONN
*I *562:A I *C 56.405 28.855 *L 0.00173 *D OR2X1
*I *568:Y O *C 56.405 26.825 *L 0 *D NAND2XL

*CAP
1 *245:1 0.000163404
2 *245:2 0.000163404

*RES
1 *245:2 *568:Y 1.4
2 *245:1 *245:2 0.869979
3 *562:A *245:1 1.4
*END

*D_NET *246 0.000509226

*CONN
*I *552:A0 I *C 47.415 18.415 *L 0.00162 *D AO22X1
*I *567:Y O *C 44.515 17.835 *L 0 *D XOR2XL

*CAP
1 *246:1 4.30482e-05
2 *246:2 4.30482e-05
3 *246:3 0.000211565
4 *246:4 0.000211565

*RES
1 *246:5 *567:Y 1.4
2 *246:4 *246:5 1.4
3 *246:3 *246:4 1.24288
4 *246:2 *246:3 1.4
5 *246:1 *246:2 0.248577
6 *552:A0 *246:1 1.4
*END

*D_NET *247 0.00140263

*CONN
*I *565:A I *C 54.375 23.345 *L 0.00273 *D INVX1
*I *556:B I *C 54.085 28.855 *L 0.00171 *D NOR2XL
*I *566:Y O *C 54.085 32.045 *L 0 *D NAND4XL

*CAP
1 *247:2 2.01988e-05
2 *247:3 2.01988e-05
3 *247:4 0.00042434
4 *247:5 0.000681118
5 *247:6 0.000256778

*RES
1 *247:6 *566:Y 1.4
2 *247:5 *556:B 1.4
3 *247:5 *247:6 1.36711
4 *247:4 *247:5 2.36137
5 *247:3 *247:4 1.4
6 *247:2 *247:3 0.124288
7 *247:1 *247:2 1.4
8 *565:A *247:1 1.4
*END

*D_NET *248 0.000380467

*CONN
*I *564:C0 I *C 51.765 23.055 *L 0.00287 *D OAI211X1
*I *565:Y O *C 54.0025 23.345 *L 0 *D INVX1

*CAP
1 *248:2 0.000163027
2 *248:3 0.000163027
3 *248:4 2.1324e-05
4 *248:5 2.72064e-05
5 *248:6 5.88247e-06

*RES
1 *248:6 *565:Y 1.4
2 *248:5 *248:6 0.0342849
3 *248:4 *248:5 0.124283
4 *248:3 *248:4 1.4
5 *248:2 *248:3 0.994307
6 *248:1 *248:2 1.4
7 *564:C0 *248:1 1.4
*END

*D_NET *249 0.00145996

*CONN
*I *560:B I *C 50.025 15.805 *L 0.00171 *D NOR2XL
*I *572:AN I *C 51.185 18.415 *L 0.00174 *D NOR2BX1
*I *564:Y O *C 51.475 24.215 *L 0 *D OAI211X1

*CAP
1 *249:2 8.46259e-05
2 *249:3 8.46259e-05
3 *249:4 0.000193717
4 *249:5 0.000624198
5 *249:6 0.000430482
6 *249:8 2.11565e-05
7 *249:9 2.11565e-05

*RES
1 *249:10 *564:Y 1.4
2 *249:9 *249:10 1.4
3 *249:8 *249:9 0.124288
4 *249:6 *249:8 1.4
5 *249:5 *572:AN 1.4
6 *249:5 *249:6 2.48577
7 *249:4 *249:5 1.1186
8 *249:3 *249:4 1.4
9 *249:2 *249:3 0.497153
10 *249:1 *249:2 1.4
11 *560:B *249:1 1.4
*END

*D_NET *250 0.00217865

*CONN
*I *572:B I *C 50.605 18.125 *L 0.0028 *D NOR2BX1
*I *560:A I *C 50.315 16.095 *L 0.00162 *D NOR2XL
*I *563:Y O *C 58.145 11.165 *L 0 *D OAI31X1

*CAP
1 *250:2 2.11565e-05
2 *250:3 2.11565e-05
3 *250:4 0.000150669
4 *250:5 0.000516578
5 *250:7 0.000365909
6 *250:8 0.000551593
7 *250:9 0.000551593

*RES
1 *250:10 *563:Y 1.4
2 *250:9 *250:10 1.4
3 *250:8 *250:9 3.35578
4 *250:7 *250:8 1.4
5 *250:5 *250:7 2.1129
6 *250:5 *560:A 1.4
7 *250:4 *250:5 0.870019
8 *250:3 *250:4 1.4
9 *250:2 *250:3 0.124288
10 *250:1 *250:2 1.4
11 *572:B *250:1 1.4
*END

*D_NET *251 0.000529439

*CONN
*I *543:S0 I *C 61.625 26.245 *L 0.00372 *D MXI2XL
*I *561:Y O *C 58.145 25.955 *L 0 *D NOR2XL

*CAP
1 *251:1 2.23337e-05
2 *251:2 2.23337e-05
3 *251:3 0.000242386
4 *251:4 0.000242386

*RES
1 *251:5 *561:Y 1.4
2 *251:4 *251:5 1.4
3 *251:3 *251:4 1.49146
4 *251:2 *251:3 1.4
5 *251:1 *251:2 0.124283
6 *543:S0 *251:1 1.4
*END

*D_NET *252 0.00225944

*CONN
*I *554:B I *C 62.495 34.075 *L 0.00171 *D NOR2XL
*I *551:A1 I *C 60.465 33.785 *L 0.00278 *D AOI21X1
*I *555:AN I *C 57.275 33.785 *L 0.00178 *D NAND2BX1
*I *562:Y O *C 55.825 29.145 *L 0 *D OR2X1
*I *556:A I *C 54.375 28.565 *L 0.00162 *D NOR2XL

*CAP
1 *252:1 4.66869e-05
2 *252:2 4.66869e-05
3 *252:3 0.000154042
4 *252:4 0.000396107
5 *252:5 2.33434e-05
6 *252:6 0.000242065
7 *252:7 2.33434e-05
8 *252:8 0.000350152
9 *252:10 2.33434e-05
10 *252:11 0.000326808
11 *252:13 0.00011003
12 *252:14 0.000220059
13 *252:15 2.33434e-05
14 *252:16 0.00011003
15 *252:17 2.33434e-05
16 *252:18 7.00303e-05
17 *252:20 7.00303e-05

*RES
1 *252:20 *556:A 1.4
2 *252:18 *252:20 0.372848
3 *252:17 *562:Y 1.4
4 *252:16 *252:18 1.4
5 *252:15 *252:17 0.124283
6 *252:14 *252:16 0.621444
7 *252:14 *252:15 1.4
8 *252:13 *252:14 0.621444
9 *252:11 *252:13 1.4
10 *252:10 *555:AN 1.4
11 *252:8 *252:11 1.73996
12 *252:8 *252:10 0.124283
13 *252:7 *551:A1 1.4
14 *252:6 *252:8 1.4
15 *252:5 *252:7 0.124283
16 *252:4 *252:6 1.36718
17 *252:4 *252:5 1.4
18 *252:3 *252:4 0.870021
19 *252:2 *252:3 1.4
20 *252:1 *252:2 0.248565
21 *554:B *252:1 1.4
*END

*D_NET *253 0.00819528

*CONN
*I *536:A1 I *C 59.015 28.855 *L 0.00277 *D OAI22X1
*I *540:A1 I *C 58.725 34.075 *L 0.00274 *D OAI21X1
*I *527:A0 I *C 53.215 36.975 *L 0.00271 *D OAI21X1
*I *530:A0 I *C 52.345 31.755 *L 0.00271 *D OAI21X1
*I *559:Y O *C 47.2075 26.535 *L 0 *D CLKINVX1
*I *573:A1 I *C 46.835 34.075 *L 0.00274 *D OAI21X1
*I *553:A I *C 47.125 21.025 *L 0.0017 *D MXI2XL
*I *544:A1 I *C 57.855 18.415 *L 0.00277 *D OAI22X1

*CAP
1 *253:2 2.20059e-05
2 *253:3 2.20059e-05
3 *253:4 0.000420182
4 *253:5 0.000420182
5 *253:6 4.40119e-05
6 *253:7 0.000550636
7 *253:9 0.000506624
8 *253:11 2.3358e-05
9 *253:12 0.00023358
10 *253:13 0.000210222
11 *253:14 6.89432e-05
12 *253:15 8.85114e-05
13 *253:16 0.000390678
14 *253:17 8.85114e-05
15 *253:18 0.000210222
16 *253:19 0.000321735
17 *253:21 0.000210222
18 *253:22 2.3358e-05
19 *253:24 9.14367e-05
20 *253:25 0.000630665
21 *253:26 9.14367e-05
22 *253:27 2.29811e-05
23 *253:28 0.000746049
24 *253:30 2.29811e-05
25 *253:31 6.8463e-06
26 *253:32 0.000131895
27 *253:36 2.11565e-05
28 *253:38 2.11565e-05
29 *253:39 0.000279813
30 *253:40 0.000344385
31 *253:41 2.11565e-05
32 *253:42 6.45723e-05
33 *253:43 2.11565e-05
34 *253:44 0.000763158
35 *253:46 0.000763158
36 *253:48 0.000127944
37 *253:49 0.000127944
38 *253:50 2.01988e-05
39 *253:51 2.01988e-05

*RES
1 *253:52 *544:A1 1.4
2 *253:51 *253:52 1.4
3 *253:50 *253:51 0.124288
4 *253:49 *253:50 1.4
5 *253:48 *253:49 0.745696
6 *253:46 *253:48 1.4
7 *253:45 *553:A 1.4
8 *253:44 *253:46 4.59867
9 *253:43 *253:45 1.4
10 *253:42 *253:44 1.4
11 *253:41 *253:43 0.124288
12 *253:40 *253:42 0.372865
13 *253:40 *253:41 1.4
14 *253:39 *253:40 1.61575
15 *253:38 *253:39 1.4
16 *253:36 *253:38 0.124288
17 *253:34 *573:A1 1.4
18 *253:32 *253:36 1.4
19 *253:31 *559:Y 1.4
20 *253:30 *253:34 1.4
21 *253:29 *530:A0 1.4
22 *253:28 *253:32 0.745731
23 *253:28 *253:31 0.0364295
24 *253:27 *253:30 0.124289
25 *253:26 *253:29 1.4
26 *253:25 *253:28 3.23151
27 *253:25 *253:27 1.4
28 *253:24 *253:26 0.497155
29 *253:22 *253:25 0.124289
30 *253:21 *253:24 1.4
31 *253:20 *527:A0 1.4
32 *253:19 *253:22 1.4
33 *253:18 *253:21 1.1186
34 *253:17 *253:20 1.4
35 *253:16 *253:19 1.74004
36 *253:16 *253:18 1.4
37 *253:15 *253:17 0.497155
38 *253:14 *253:16 0.372866
39 *253:13 *253:15 1.4
40 *253:12 *253:14 1.4
41 *253:12 *253:13 1.1186
42 *253:11 *253:12 0.124289
43 *253:9 *253:11 1.4
44 *253:8 *540:A1 1.4
45 *253:7 *253:9 2.85864
46 *253:7 *253:8 1.4
47 *253:6 *253:7 0.248578
48 *253:5 *253:6 1.4
49 *253:4 *253:5 2.23709
50 *253:3 *253:4 1.4
51 *253:2 *253:3 0.124289
52 *253:1 *253:2 1.4
53 *536:A1 *253:1 1.4
*END

*D_NET *254 0.000938237

*CONN
*I *552:B1 I *C 46.255 18.125 *L 0.00164 *D AO22X1
*I *558:A I *C 48.285 16.095 *L 0.00273 *D CLKINVX1
*I *560:Y O *C 49.735 15.515 *L 0 *D NOR2XL

*CAP
1 *254:1 0.000129145
2 *254:2 0.000129145
3 *254:3 0.000148095
4 *254:4 0.000253878
5 *254:5 0.000105782
6 *254:6 2.15241e-05
7 *254:7 6.45723e-05
8 *254:8 2.15241e-05
9 *254:9 6.45723e-05

*RES
1 *254:9 *560:Y 1.4
2 *254:8 *558:A 1.4
3 *254:7 *254:9 0.372865
4 *254:6 *254:8 0.124288
5 *254:5 *254:7 1.4
6 *254:4 *254:6 1.4
7 *254:4 *254:5 0.621442
8 *254:3 *254:4 0.870019
9 *254:2 *254:3 1.4
10 *254:1 *254:2 0.74573
11 *552:B1 *254:1 1.4
*END

*D_NET *255 0.00939111

*CONN
*I *536:B1 I *C 59.595 28.855 *L 0.00282 *D OAI22X1
*I *540:B0 I *C 58.145 33.785 *L 0.0028 *D OAI21X1
*I *530:B0 I *C 51.475 31.755 *L 0.0028 *D OAI21X1
*I *541:A I *C 51.475 26.245 *L 0.00157 *D NAND2XL
*I *573:B0 I *C 46.255 33.785 *L 0.0028 *D OAI21X1
*I *527:B0 I *C 52.345 36.975 *L 0.0028 *D OAI21X1
*I *553:B I *C 45.96 20.685 *L 0.00164 *D MXI2XL
*I *550:B0 I *C 45.095 26.245 *L 0.00173 *D OAI2BB1XL
*I *544:B1 I *C 57.275 18.415 *L 0.00282 *D OAI22X1
*I *558:Y O *C 48.6575 16.095 *L 0 *D CLKINVX1

*CAP
1 *255:1 2.33434e-05
2 *255:2 2.33434e-05
3 *255:3 6.60178e-05
4 *255:4 6.60178e-05
5 *255:5 0.000186747
6 *255:6 0.000186747
7 *255:7 2.20059e-05
8 *255:8 0.000529605
9 *255:9 0.000186747
10 *255:10 0.000507599
11 *255:11 0.000186747
12 *255:12 0.000163506
13 *255:13 2.20059e-05
14 *255:14 0.000163506
15 *255:15 2.20059e-05
16 *255:16 2.29811e-05
17 *255:18 0.000436641
18 *255:20 0.000420444
19 *255:21 0.000413659
20 *255:22 0.000280296
21 *255:23 0.000583949
22 *255:24 2.3358e-05
23 *255:25 6.84557e-05
24 *255:27 0.000466243
25 *255:28 2.3358e-05
26 *255:29 6.84557e-05
27 *255:31 2.2441e-05
28 *255:34 0.000401973
29 *255:36 0.000401973
30 *255:37 2.15241e-05
31 *255:38 0.000387433
32 *255:39 6.34694e-05
33 *255:40 0.00036962
34 *255:41 6.34694e-05
35 *255:42 0.000211565
36 *255:43 4.08215e-06
37 *255:44 4.39651e-05
38 *255:45 0.000211565
39 *255:46 3.71105e-07
40 *255:47 4.39651e-05
41 *255:48 0.000150669
42 *255:51 0.000150669
43 *255:52 0.000617935
44 *255:53 0.000596779
45 *255:54 2.11565e-05
46 *255:55 2.1324e-05
47 *255:56 0.000193717
48 *255:57 2.1324e-05
49 *255:58 0.000200026
50 *255:60 6.30878e-06

*RES
1 *255:60 *558:Y 1.4
2 *255:58 *255:60 0.0364294
3 *255:57 *544:B1 1.4
4 *255:56 *255:58 1.1186
5 *255:55 *255:57 0.124283
6 *255:54 *255:56 1.4
7 *255:53 *255:55 1.4
8 *255:52 *255:54 0.124288
9 *255:52 *255:53 3.60436
10 *255:51 *255:52 1.4
11 *255:48 *255:51 0.870019
12 *255:47 *550:B0 1.4
13 *255:46 *553:B 1.4
14 *255:45 *255:48 1.4
15 *255:44 *255:47 0.248577
16 *255:43 *255:46 0.0021429
17 *255:42 *255:45 1.24288
18 *255:41 *255:44 1.4
19 *255:40 *255:43 0.021429
20 *255:40 *255:42 1.4
21 *255:39 *255:41 0.372865
22 *255:38 *255:40 2.1129
23 *255:38 *255:39 1.4
24 *255:37 *255:38 0.124288
25 *255:36 *255:37 1.4
26 *255:34 *255:36 2.36148
27 *255:33 *527:B0 1.4
28 *255:31 *255:34 1.4
29 *255:29 *255:33 1.4
30 *255:28 *573:B0 1.4
31 *255:27 *255:31 0.124289
32 *255:27 *541:A 1.4
33 *255:25 *255:29 0.372866
34 *255:24 *255:28 0.124289
35 *255:23 *255:27 2.36149
36 *255:23 *530:B0 1.4
37 *255:22 *255:25 1.4
38 *255:21 *255:24 1.4
39 *255:20 *255:23 0.745732
40 *255:20 *255:22 1.49146
41 *255:18 *255:21 2.2372
42 *255:18 *255:20 1.4
43 *255:17 *540:B0 1.4
44 *255:16 *255:18 0.124289
45 *255:15 *255:17 1.4
46 *255:14 *255:16 1.4
47 *255:13 *255:15 0.124289
48 *255:12 *255:14 0.870021
49 *255:11 *255:13 1.4
50 *255:10 *255:12 1.4
51 *255:9 *255:11 0.994261
52 *255:8 *255:10 2.85864
53 *255:8 *255:9 1.4
54 *255:7 *255:8 0.124289
55 *255:6 *255:7 1.4
56 *255:5 *255:6 0.994261
57 *255:4 *255:5 1.4
58 *255:3 *255:4 0.372866
59 *255:2 *255:3 1.4
60 *255:1 *255:2 0.124283
61 *536:B1 *255:1 1.4
*END

*D_NET *256 0.000650863

*CONN
*I *544:A0 I *C 58.145 18.415 *L 0.00265 *D OAI22X1
*I *557:Y O *C 54.085 17.835 *L 0 *D MXI2XL

*CAP
1 *256:1 4.26479e-05
2 *256:2 4.26479e-05
3 *256:3 0.000282783
4 *256:4 0.000282783

*RES
1 *256:5 *557:Y 1.4
2 *256:4 *256:5 1.4
3 *256:3 *256:4 1.74004
4 *256:2 *256:3 1.4
5 *256:1 *256:2 0.248565
6 *544:A0 *256:1 1.4
*END

*D_NET *257 0.00114587

*CONN
*I *548:A0 I *C 49.445 26.245 *L 0.00164 *D OAI21XL
*I *556:Y O *C 53.795 29.145 *L 0 *D NOR2XL

*CAP
1 *257:1 0.00023358
2 *257:2 0.00023358
3 *257:3 0.000339353
4 *257:4 0.000339353

*RES
1 *257:5 *556:Y 1.4
2 *257:4 *257:5 1.4
3 *257:3 *257:4 1.86433
4 *257:2 *257:3 1.4
5 *257:1 *257:2 1.24289
6 *548:A0 *257:1 1.4
*END

*D_NET *258 0.000536168

*CONN
*I *551:B0 I *C 60.175 34.075 *L 0.00277 *D AOI21X1
*I *554:Y O *C 62.785 34.365 *L 0 *D NOR2XL

*CAP
1 *258:1 2.33434e-05
2 *258:2 2.33434e-05
3 *258:3 0.000198054
4 *258:4 0.000198054
5 *258:5 4.66869e-05
6 *258:6 4.66869e-05

*RES
1 *258:6 *554:Y 1.4
2 *258:5 *258:6 0.248565
3 *258:4 *258:5 1.4
4 *258:3 *258:4 1.1186
5 *258:2 *258:3 1.4
6 *258:1 *258:2 0.124283
7 *551:B0 *258:1 1.4
*END

*D_NET *259 0.00107702

*CONN
*I *574:B I *C 50.315 34.075 *L 0.00363 *D CLKXOR2X1
*I *545:AN I *C 52.925 33.785 *L 0.00178 *D NAND3BX1
*I *542:AN I *C 55.535 33.785 *L 0.00178 *D NAND2BX1
*I *555:Y O *C 56.405 33.205 *L 0 *D NAND2BX1

*CAP
1 *259:1 2.3358e-05
2 *259:2 2.3358e-05
3 *259:3 0.000204392
4 *259:4 0.000402445
5 *259:5 0.000264071
6 *259:7 6.60178e-05
7 *259:10 4.66869e-05
8 *259:12 4.66869e-05

*RES
1 *259:12 *555:Y 1.4
2 *259:10 *259:12 0.248565
3 *259:8 *542:AN 1.4
4 *259:7 *259:10 1.4
5 *259:6 *545:AN 1.4
6 *259:5 *259:8 1.4
7 *259:5 *259:7 0.372866
8 *259:4 *259:6 1.4
9 *259:4 *259:5 1.1186
10 *259:3 *259:4 1.1186
11 *259:2 *259:3 1.4
12 *259:1 *259:2 0.124289
13 *574:B *259:1 1.4
*END

*D_NET *260 0.000427541

*CONN
*I *549:D I *C 47.415 23.345 *L 0.00276 *D SDFFRHQX1
*I *553:Y O *C 46.835 21.605 *L 0 *D MXI2XL

*CAP
1 *260:2 2.11565e-05
2 *260:3 2.11565e-05
3 *260:4 0.000129145
4 *260:5 0.000129145
5 *260:6 6.34694e-05
6 *260:7 6.34694e-05

*RES
1 *260:8 *553:Y 1.4
2 *260:7 *260:8 1.4
3 *260:6 *260:7 0.372865
4 *260:5 *260:6 1.4
5 *260:4 *260:5 0.74573
6 *260:3 *260:4 1.4
7 *260:2 *260:3 0.124288
8 *260:1 *260:2 1.4
9 *549:D *260:1 1.4
*END

*D_NET *261 0.000938237

*CONN
*I *547:D I *C 41.325 21.315 *L 0.00276 *D SDFFRHQX1
*I *552:Y O *C 44.805 18.415 *L 0 *D AO22X1

*CAP
1 *261:1 4.30482e-05
2 *261:2 4.30482e-05
3 *261:3 0.000253878
4 *261:4 0.000253878
5 *261:5 0.000172193
6 *261:6 0.000172193

*RES
1 *261:6 *552:Y 1.4
2 *261:5 *261:6 0.994307
3 *261:4 *261:5 1.4
4 *261:3 *261:4 1.49146
5 *261:2 *261:3 1.4
6 *261:1 *261:2 0.248577
7 *547:D *261:1 1.4
*END

*D_NET *262 8.80238e-05

*CONN
*I *540:A0 I *C 59.015 33.785 *L 0.00271 *D OAI21X1
*I *551:Y O *C 59.595 33.785 *L 0 *D AOI21X1

*CAP
1 *262:2 4.40119e-05
2 *262:3 4.40119e-05

*RES
1 *262:4 *551:Y 1.4
2 *262:3 *262:4 1.4
3 *262:2 *262:3 0.248578
4 *262:1 *262:2 1.4
5 *540:A0 *262:1 1.4
*END

*D_NET *263 0.000636118

*CONN
*I *546:D I *C 41.035 26.535 *L 0.00276 *D SDFFRHQX1
*I *550:Y O *C 44.545 26.62 *L 0 *D OAI2BB1XL

*CAP
1 *263:1 2.3358e-05
2 *263:2 2.3358e-05
3 *263:3 0.000275773
4 *263:4 0.000275773
5 *263:5 1.65117e-05
6 *263:6 1.8928e-05
7 *263:7 2.41634e-06

*RES
1 *263:7 *550:Y 1.4
2 *263:6 *263:7 0.0128575
3 *263:5 *263:6 0.0878593
4 *263:4 *263:5 1.4
5 *263:3 *263:4 1.49146
6 *263:2 *263:3 1.4
7 *263:1 *263:2 0.124289
8 *546:D *263:1 1.4
*END

*D_NET *264 0.000416675

*CONN
*I *541:B I *C 52.055 26.245 *L 0.00167 *D NAND2XL
*I *548:Y O *C 50.605 26.825 *L 0 *D OAI21XL

*CAP
1 *264:1 7.00739e-05
2 *264:2 7.00739e-05
3 *264:3 0.000114905
4 *264:4 0.000114905
5 *264:5 2.3358e-05
6 *264:6 2.3358e-05

*RES
1 *264:6 *548:Y 1.4
2 *264:5 *264:6 0.124289
3 *264:4 *264:5 1.4
4 *264:3 *264:4 0.621444
5 *264:2 *264:3 1.4
6 *264:1 *264:2 0.372866
7 *541:B *264:1 1.4
*END

*D_NET *265 0.000507274

*CONN
*I *538:D I *C 57.565 16.095 *L 0.00276 *D SDFFRHQX1
*I *544:Y O *C 57.565 18.995 *L 0 *D OAI22X1

*CAP
1 *265:2 2.01988e-05
2 *265:3 2.01988e-05
3 *265:4 0.00021324
4 *265:5 0.00021324
5 *265:6 2.01988e-05
6 *265:7 2.01988e-05

*RES
1 *265:8 *544:Y 1.4
2 *265:7 *265:8 1.4
3 *265:6 *265:7 0.124288
4 *265:5 *265:6 1.4
5 *265:4 *265:5 1.24283
6 *265:3 *265:4 1.4
7 *265:2 *265:3 0.124288
8 *265:1 *265:2 1.4
9 *538:D *265:1 1.4
*END

*D_NET *266 0.000854951

*CONN
*I *536:A0 I *C 58.725 28.855 *L 0.00265 *D OAI22X1
*I *543:Y O *C 62.205 26.825 *L 0 *D MXI2XL

*CAP
1 *266:2 0.000220059
2 *266:3 0.000220059
3 *266:4 0.000163404
4 *266:5 0.000163404
5 *266:6 4.40119e-05
6 *266:7 4.40119e-05

*RES
1 *266:8 *543:Y 1.4
2 *266:7 *266:8 1.4
3 *266:6 *266:7 0.248578
4 *266:5 *266:6 1.4
5 *266:4 *266:5 0.869979
6 *266:3 *266:4 1.4
7 *266:2 *266:3 1.24289
8 *266:1 *266:2 1.4
9 *536:A0 *266:1 1.4
*END

*D_NET *267 0.00138942

*CONN
*I *539:B I *C 46.835 31.465 *L 0.00171 *D NOR2XL
*I *535:A1 I *C 49.155 31.755 *L 0.00278 *D AOI21X1
*I *545:Y O *C 51.475 34.365 *L 0 *D NAND3BX1

*CAP
1 *267:2 0.000183849
2 *267:3 0.000183849
3 *267:4 2.3358e-05
4 *267:5 0.000280296
5 *267:6 0.000256938
6 *267:8 0.000183849
7 *267:9 0.000183849
8 *267:10 4.67159e-05
9 *267:11 4.67159e-05

*RES
1 *267:11 *545:Y 1.4
2 *267:10 *267:11 0.248578
3 *267:9 *267:10 1.4
4 *267:8 *267:9 0.99431
5 *267:6 *267:8 1.4
6 *267:5 *535:A1 1.4
7 *267:5 *267:6 1.36718
8 *267:4 *267:5 0.124289
9 *267:3 *267:4 1.4
10 *267:2 *267:3 0.99431
11 *267:1 *267:2 1.4
12 *539:B *267:1 1.4
*END

*D_NET *268 0.0012395

*CONN
*I *537:D I *C 54.375 21.315 *L 0.00276 *D SDFFRHQX1
*I *541:Y O *C 52.055 26.825 *L 0 *D NAND2XL

*CAP
1 *268:2 0.000183226
2 *268:3 0.000183226
3 *268:4 0.000413542
4 *268:5 0.000413542
5 *268:6 2.29811e-05
6 *268:7 2.29811e-05

*RES
1 *268:8 *541:Y 1.4
2 *268:7 *268:8 1.4
3 *268:6 *268:7 0.124289
4 *268:5 *268:6 1.4
5 *268:4 *268:5 2.36148
6 *268:3 *268:4 1.4
7 *268:2 *268:3 1.11859
8 *268:1 *268:2 1.4
9 *537:D *268:1 1.4
*END

*D_NET *269 0.00111246

*CONN
*I *531:A1 I *C 55.535 36.975 *L 0.00278 *D AOI21X1
*I *533:B I *C 54.955 39.295 *L 0.00171 *D NOR2XL
*I *542:Y O *C 54.665 33.205 *L 0 *D NAND2BX1

*CAP
1 *269:2 4.40119e-05
2 *269:3 4.40119e-05
3 *269:4 0.000490212
4 *269:5 0.000186747
5 *269:6 0.000303465
6 *269:8 2.20059e-05
7 *269:9 2.20059e-05

*RES
1 *269:10 *542:Y 1.4
2 *269:9 *269:10 1.4
3 *269:8 *269:9 0.124289
4 *269:6 *269:8 1.4
5 *269:5 *533:B 1.4
6 *269:4 *269:6 1.61567
7 *269:4 *269:5 0.994261
8 *269:3 *269:4 1.4
9 *269:2 *269:3 0.248578
10 *269:1 *269:2 1.4
11 *531:A1 *269:1 1.4
*END

*D_NET *270 0.000368145

*CONN
*I *534:D I *C 58.435 31.755 *L 0.00276 *D SDFFRHQX1
*I *540:Y O *C 57.855 33.495 *L 0 *D OAI21X1

*CAP
1 *270:2 2.20059e-05
2 *270:3 2.20059e-05
3 *270:4 0.000140061
4 *270:5 0.000140061
5 *270:6 2.20059e-05
6 *270:7 2.20059e-05

*RES
1 *270:8 *540:Y 1.4
2 *270:7 *270:8 1.4
3 *270:6 *270:7 0.124289
4 *270:5 *270:6 1.4
5 *270:4 *270:5 0.745696
6 *270:3 *270:4 1.4
7 *270:2 *270:3 0.124289
8 *270:1 *270:2 1.4
9 *534:D *270:1 1.4
*END

*D_NET *271 0.000414413

*CONN
*I *535:B0 I *C 49.445 31.465 *L 0.00277 *D AOI21X1
*I *539:Y O *C 47.125 31.175 *L 0 *D NOR2XL

*CAP
1 *271:1 2.3358e-05
2 *271:2 2.3358e-05
3 *271:3 0.000183849
4 *271:4 0.000183849

*RES
1 *271:5 *539:Y 1.4
2 *271:4 *271:5 1.4
3 *271:3 *271:4 0.99431
4 *271:2 *271:3 1.4
5 *271:1 *271:2 0.124289
6 *535:B0 *271:1 1.4
*END

*D_NET *272 0.000986066

*CONN
*I *532:D I *C 59.015 23.345 *L 0.00276 *D SDFFRHQX1
*I *536:Y O *C 59.305 29.435 *L 0 *D OAI22X1

*CAP
1 *272:1 0.000471027
2 *272:2 0.000471027
3 *272:3 2.20059e-05
4 *272:4 2.20059e-05

*RES
1 *272:5 *536:Y 1.4
2 *272:4 *272:5 1.4
3 *272:3 *272:4 0.124289
4 *272:2 *272:3 1.4
5 *272:1 *272:2 2.60994
6 *532:D *272:1 1.4
*END

*D_NET *273 0.000461883

*CONN
*I *530:A1 I *C 52.055 31.465 *L 0.00274 *D OAI21X1
*I *535:Y O *C 50.025 31.755 *L 0 *D AOI21X1

*CAP
1 *273:1 4.67159e-05
2 *273:2 4.67159e-05
3 *273:3 0.000160868
4 *273:4 0.000160868
5 *273:5 2.3358e-05
6 *273:6 2.3358e-05

*RES
1 *273:6 *535:Y 1.4
2 *273:5 *273:6 0.124289
3 *273:4 *273:5 1.4
4 *273:3 *273:4 0.870021
5 *273:2 *273:3 1.4
6 *273:1 *273:2 0.248578
7 *530:A1 *273:1 1.4
*END

*D_NET *274 0.000554892

*CONN
*I *531:B0 I *C 55.825 36.685 *L 0.00277 *D AOI21X1
*I *533:Y O *C 55.245 39.585 *L 0 *D NOR2XL

*CAP
1 *274:1 0.000233434
2 *274:2 0.000233434
3 *274:3 4.40119e-05
4 *274:4 4.40119e-05

*RES
1 *274:5 *533:Y 1.4
2 *274:4 *274:5 1.4
3 *274:3 *274:4 0.248578
4 *274:2 *274:3 1.4
5 *274:1 *274:2 1.24283
6 *531:B0 *274:1 1.4
*END

*D_NET *275 0.00057483

*CONN
*I *527:A1 I *C 52.925 36.685 *L 0.00274 *D OAI21X1
*I *531:Y O *C 56.405 36.975 *L 0 *D AOI21X1

*CAP
1 *275:2 0.000264071
2 *275:3 0.000264071
3 *275:4 2.33434e-05
4 *275:5 2.33434e-05

*RES
1 *275:5 *531:Y 1.4
2 *275:4 *275:5 0.124283
3 *275:3 *275:4 1.4
4 *275:2 *275:3 1.49146
5 *275:1 *275:2 1.4
6 *527:A1 *275:1 1.4
*END

*D_NET *276 0.000745948

*CONN
*I *529:D I *C 50.605 28.565 *L 0.00276 *D SDFFRHQX1
*I *530:Y O *C 51.185 32.045 *L 0 *D OAI21X1

*CAP
1 *276:1 0.000303654
2 *276:2 0.000303654
3 *276:3 4.59622e-05
4 *276:4 4.59622e-05
5 *276:5 2.3358e-05
6 *276:6 2.3358e-05

*RES
1 *276:6 *530:Y 1.4
2 *276:5 *276:6 0.124289
3 *276:4 *276:5 1.4
4 *276:3 *276:4 0.248577
5 *276:2 *276:3 1.4
6 *276:1 *276:2 1.61575
7 *529:D *276:1 1.4
*END

*D_NET *277 0.00116187

*CONN
*I *526:D I *C 49.735 42.195 *L 0.00276 *D SDFFRHQX1
*I *527:Y O *C 52.055 37.265 *L 0 *D OAI21X1

*CAP
1 *277:1 0.000397086
2 *277:2 0.000397086
3 *277:3 0.000183849
4 *277:4 0.000183849

*RES
1 *277:5 *527:Y 1.4
2 *277:4 *277:5 1.4
3 *277:3 *277:4 0.99431
4 *277:2 *277:3 1.4
5 *277:1 *277:2 2.11291
6 *526:D *277:1 1.4
*END

*D_NET *278 0.000230565

*CONN
*I *573:A0 I *C 47.125 33.785 *L 0.00271 *D OAI21X1
*I *574:Y O *C 48.285 33.495 *L 0 *D CLKXOR2X1

*CAP
1 *278:2 9.19243e-05
2 *278:3 9.19243e-05
3 *278:4 2.3358e-05
4 *278:5 2.3358e-05

*RES
1 *278:5 *574:Y 1.4
2 *278:4 *278:5 0.124289
3 *278:3 *278:4 1.4
4 *278:2 *278:3 0.497155
5 *278:1 *278:2 1.4
6 *573:A0 *278:1 1.4
*END

*D_NET *279 0.000979527

*CONN
*I *528:D I *C 45.385 39.005 *L 0.00276 *D SDFFRHQX1
*I *573:Y O *C 45.965 33.495 *L 0 *D OAI21X1

*CAP
1 *279:1 2.3358e-05
2 *279:2 2.3358e-05
3 *279:3 4.59622e-05
4 *279:4 4.59622e-05
5 *279:5 0.000420444
6 *279:6 0.000420444

*RES
1 *279:6 *573:Y 1.4
2 *279:5 *279:6 2.2372
3 *279:4 *279:5 1.4
4 *279:3 *279:4 0.248577
5 *279:2 *279:3 1.4
6 *279:1 *279:2 0.124289
7 *528:D *279:1 1.4
*END

*D_NET *280 0.00316764

*CONN
*I *642:A I *C 37.845 36.975 *L 0.00273 *D CLKINVX1
*I *620:A1 I *C 39.005 33.785 *L 0.00279 *D AOI211X1
*I *615:Q O *C 41.035 42.485 *L 0 *D SDFFRHQX1
*I *579:SI I *C 39.005 49.735 *L 0.00276 *D SDFFRHQX1

*CAP
1 *280:1 2.3358e-05
2 *280:2 2.3358e-05
3 *280:3 9.19243e-05
4 *280:4 0.000114905
5 *280:5 2.29811e-05
6 *280:6 0.000280296
7 *280:7 0.000420444
8 *280:8 0.000280296
9 *280:9 0.000420444
10 *280:11 0.000160868
11 *280:12 0.000137886
12 *280:13 2.29811e-05
13 *280:15 0.000583949
14 *280:17 0.000583949

*RES
1 *280:17 *579:SI 1.4
2 *280:15 *280:17 3.10722
3 *280:14 *615:Q 1.4
4 *280:13 *280:15 1.4
5 *280:12 *280:14 1.4
6 *280:11 *280:13 0.124289
7 *280:11 *280:12 0.745732
8 *280:9 *280:11 1.4
9 *280:8 *620:A1 1.4
10 *280:7 *280:9 2.2372
11 *280:6 *280:8 1.49146
12 *280:5 *280:7 1.4
13 *280:4 *280:6 1.4
14 *280:4 *280:5 0.124289
15 *280:3 *280:4 0.497155
16 *280:2 *280:3 1.4
17 *280:1 *280:2 0.124289
18 *642:A *280:1 1.4
*END

*D_NET *281 0.00446193

*CONN
*I *641:A I *C 44.225 36.975 *L 0.00273 *D INVX1
*I *631:B0 I *C 43.355 31.755 *L 0.00266 *D AOI32X1
*I *636:B I *C 40.165 31.465 *L 0.00167 *D NAND2XL
*I *620:A0 I *C 38.66 33.7725 *L 0.00263 *D AOI211X1
*I *599:Q O *C 33.495 38.715 *L 0 *D SDFFRHQX1
*I *615:SI I *C 32.625 41.905 *L 0.00276 *D SDFFRHQX1

*CAP
1 *281:2 2.29811e-05
2 *281:3 2.29811e-05
3 *281:4 0.000373728
4 *281:5 0.000373728
5 *281:6 9.19243e-05
6 *281:7 0.000344716
7 *281:8 4.67159e-05
8 *281:9 0.000367697
9 *281:10 4.67159e-05
10 *281:11 7.00739e-05
11 *281:12 0.000114905
12 *281:14 7.00739e-05
13 *281:15 0.000115984
14 *281:17 0.000518305
15 *281:18 0.000397891
16 *281:19 4.42996e-06
17 *281:20 0.000413659
18 *281:22 0.000413659
19 *281:23 2.3358e-05
20 *281:24 2.3358e-05
21 *281:26 6.89432e-05
22 *281:27 6.89432e-05
23 *281:28 0.00023358
24 *281:29 0.00023358

*RES
1 *281:29 *615:SI 1.4
2 *281:28 *281:29 1.24289
3 *281:27 *281:28 1.4
4 *281:26 *281:27 0.372866
5 *281:24 *281:26 1.4
6 *281:23 *599:Q 1.4
7 *281:23 *281:24 0.124289
8 *281:22 *281:23 1.4
9 *281:20 *281:22 2.2372
10 *281:19 *620:A0 1.4
11 *281:18 *281:20 1.4
12 *281:17 *281:19 0.023572
13 *281:17 *281:18 2.11719
14 *281:15 *281:17 0.617158
15 *281:14 *636:B 1.4
16 *281:12 *281:15 1.4
17 *281:11 *281:14 0.372866
18 *281:10 *631:B0 1.4
19 *281:9 *281:12 0.621444
20 *281:9 *281:11 1.4
21 *281:8 *281:10 0.248578
22 *281:7 *281:9 1.36718
23 *281:7 *281:8 1.4
24 *281:6 *281:7 0.497155
25 *281:5 *281:6 1.4
26 *281:4 *281:5 1.98862
27 *281:3 *281:4 1.4
28 *281:2 *281:3 0.124289
29 *281:1 *281:2 1.4
30 *641:A *281:1 1.4
*END

*D_NET *282 0.0123898

*CONN
*I *576:D I *C 61.915 70.325 *L 0.00276 *D SDFFRHQX1
*I *578:B I *C 51.765 59.885 *L 0.00165 *D OR2X1
*I *616:B0 I *C 44.515 47.415 *L 0.0028 *D OAI21X1
*I *603:SI I *C 30.885 44.515 *L 0.00276 *D SDFFRHQX1
*I *618:B0 I *C 29.725 39.005 *L 0.00266 *D AOI32X1
*I *602:Q O *C 26.535 47.705 *L 0 *D SDFFRHQX1
*I *640:A I *C 27.985 36.975 *L 0.00273 *D CLKINVX1
*I *635:B0 I *C 30.595 34.365 *L 0.00276 *D AOI2BB1X1

*CAP
1 *282:2 0.00077952
2 *282:3 0.00077952
3 *282:4 0.000859823
4 *282:5 0.00183144
5 *282:7 0.000971616
6 *282:8 0.000574527
7 *282:9 0.000574527
8 *282:10 4.67159e-05
9 *282:11 0.000280296
10 *282:13 0.00023358
11 *282:14 0.00108011
12 *282:15 0.00114905
13 *282:17 6.89432e-05
14 *282:19 0.000513875
15 *282:20 7.00739e-05
16 *282:21 0.000607307
17 *282:22 0.000275773
18 *282:23 2.29811e-05
19 *282:24 0.000280296
20 *282:25 0.000275773
21 *282:26 2.29811e-05
22 *282:27 0.000160868
23 *282:28 0.00011679
24 *282:29 0.000186864
25 *282:31 0.000160868
26 *282:32 4.59622e-05
27 *282:33 0.000186864
28 *282:36 4.59622e-05
29 *282:39 9.34319e-05
30 *282:40 9.34319e-05

*RES
1 *282:40 *635:B0 1.4
2 *282:39 *282:40 0.497155
3 *282:36 *282:39 1.4
4 *282:35 *640:A 1.4
5 *282:33 *602:Q 1.4
6 *282:32 *282:36 0.248577
7 *282:31 *282:35 1.4
8 *282:30 *618:B0 1.4
9 *282:29 *282:33 0.99431
10 *282:28 *282:32 1.4
11 *282:27 *282:31 0.870021
12 *282:26 *282:30 1.4
13 *282:25 *282:29 1.4
14 *282:24 *282:28 0.621444
15 *282:24 *282:27 1.4
16 *282:23 *282:26 0.124289
17 *282:22 *282:25 1.49146
18 *282:21 *282:24 0.870021
19 *282:21 *282:23 1.4
20 *282:20 *282:22 1.4
21 *282:19 *282:21 2.36149
22 *282:19 *282:20 0.372866
23 *282:17 *282:19 1.4
24 *282:16 *603:SI 1.4
25 *282:15 *282:17 0.372866
26 *282:15 *282:16 1.4
27 *282:14 *282:15 5.84157
28 *282:13 *282:14 1.4
29 *282:11 *282:13 1.24289
30 *282:11 *616:B0 1.4
31 *282:10 *282:11 0.248578
32 *282:9 *282:10 1.4
33 *282:8 *282:9 3.10722
34 *282:7 *282:8 1.4
35 *282:5 *282:7 5.09568
36 *282:5 *578:B 1.4
37 *282:4 *282:5 4.47418
38 *282:3 *282:4 1.4
39 *282:2 *282:3 4.3499
40 *282:1 *282:2 1.4
41 *576:D *282:1 1.4
*END

*D_NET *283 0.0110052

*CONN
*I *628:B I *C 33.495 33.785 *L 0.00276 *D NAND3BX1
*I *621:B0 I *C 30.595 36.975 *L 0.0028 *D OAI21X1
*I *599:SI I *C 41.905 39.295 *L 0.00276 *D SDFFRHQX1
*I *644:A I *C 41.905 42.195 *L 0.00273 *D CLKINVX1
*I *603:Q O *C 39.295 43.935 *L 0 *D SDFFRHQX1
*I *578:A I *C 52.635 60.175 *L 0.00173 *D OR2X1
*I *577:D I *C 54.375 73.515 *L 0.00276 *D SDFFRHQX1

*CAP
1 *283:2 0.000137886
2 *283:3 0.000137886
3 *283:4 0.000280296
4 *283:5 0.000280296
5 *283:6 2.29811e-05
6 *283:7 0.000367697
7 *283:8 9.34319e-05
8 *283:9 0.000344716
9 *283:10 9.34319e-05
10 *283:11 2.3358e-05
11 *283:12 0.000551546
12 *283:13 2.3358e-05
13 *283:14 0.000551546
14 *283:16 7.00739e-05
15 *283:17 0.000303654
16 *283:18 0.00035037
17 *283:20 0.00011679
18 *283:22 0.000252792
19 *283:23 4.59622e-05
20 *283:24 0.00020683
21 *283:25 0.00136975
22 *283:26 2.3358e-05
23 *283:27 0.00136975
24 *283:28 2.3358e-05
25 *283:29 0.000825575
26 *283:31 0.000958836
27 *283:32 0.000133262
28 *283:33 2.22436e-05
29 *283:34 0.00100096
30 *283:35 2.22436e-05
31 *283:36 0.00100096

*RES
1 *283:36 *577:D 1.4
2 *283:35 *578:A 1.4
3 *283:34 *283:36 5.59272
4 *283:33 *283:35 0.124283
5 *283:32 *283:34 1.4
6 *283:31 *283:33 1.4
7 *283:31 *283:32 0.745698
8 *283:29 *283:31 4.3499
9 *283:28 *603:Q 1.4
10 *283:27 *283:29 1.4
11 *283:26 *283:28 0.124289
12 *283:25 *283:27 7.20857
13 *283:24 *283:26 1.4
14 *283:23 *283:25 1.4
15 *283:22 *283:24 1.1186
16 *283:22 *283:23 0.248577
17 *283:20 *283:22 1.4
18 *283:18 *644:A 1.4
19 *283:18 *283:20 0.621444
20 *283:17 *599:SI 1.4
21 *283:17 *283:18 1.24289
22 *283:16 *283:17 0.372866
23 *283:14 *283:16 1.4
24 *283:13 *621:B0 1.4
25 *283:12 *283:14 2.98293
26 *283:11 *283:13 0.124289
27 *283:10 *283:12 1.4
28 *283:9 *283:11 1.4
29 *283:8 *283:10 0.497155
30 *283:7 *283:9 1.86433
31 *283:7 *283:8 1.4
32 *283:6 *283:7 0.124289
33 *283:5 *283:6 1.4
34 *283:4 *283:5 1.49146
35 *283:3 *283:4 1.4
36 *283:2 *283:3 0.745732
37 *283:1 *283:2 1.4
38 *628:B *283:1 1.4
*END

*D_NET *284 0.00371874

*CONN
*I *582:A0 I *C 41.905 47.415 *L 0.00158 *D AOI21XL
*I *626:A1 I *C 41.615 44.225 *L 0.00269 *D AOI31X1
*I *580:Q O *C 41.905 54.375 *L 0 *D SDFFRHQX1
*I *627:A1 I *C 43.355 49.445 *L 0.00269 *D AOI31X1
*I *585:S0 I *C 40.745 52.345 *L 0.00372 *D MXI2XL
*I *584:SI I *C 47.125 57.565 *L 0.00276 *D SDFFRHQX1

*CAP
1 *284:2 2.29811e-05
2 *284:3 2.29811e-05
3 *284:4 0.000373728
4 *284:5 0.00011679
5 *284:6 0.000256938
6 *284:7 2.29811e-05
7 *284:9 0.000137886
8 *284:10 0.000280559
9 *284:11 0.000114905
10 *284:12 0.000447746
11 *284:13 4.67159e-05
12 *284:14 0.000310491
13 *284:15 9.45981e-05
14 *284:16 4.67159e-05
15 *284:17 0.000143304
16 *284:19 9.45981e-05
17 *284:21 2.36495e-05
18 *284:23 2.36495e-05
19 *284:25 0.00011942
20 *284:26 0.00011942
21 *284:27 0.000449341
22 *284:28 0.000449341

*RES
1 *284:29 *584:SI 1.4
2 *284:28 *284:29 1.4
3 *284:27 *284:28 2.36138
4 *284:26 *284:27 1.4
5 *284:25 *284:26 0.621413
6 *284:23 *284:25 1.4
7 *284:22 *585:S0 1.4
8 *284:21 *284:23 0.124283
9 *284:19 *284:22 1.4
10 *284:17 *284:21 1.4
11 *284:16 *627:A1 1.4
12 *284:15 *284:19 0.497132
13 *284:14 *580:Q 1.4
14 *284:14 *284:17 0.745696
15 *284:13 *284:16 0.248578
16 *284:12 *284:15 1.4
17 *284:12 *284:14 0.869979
18 *284:11 *284:13 1.4
19 *284:10 *284:12 1.49146
20 *284:9 *284:11 0.621444
21 *284:9 *284:10 1.4
22 *284:7 *284:9 0.124289
23 *284:6 *626:A1 1.4
24 *284:5 *284:7 1.4
25 *284:4 *284:6 1.36718
26 *284:4 *284:5 0.621444
27 *284:3 *284:4 1.4
28 *284:2 *284:3 0.124289
29 *284:1 *284:2 1.4
30 *582:A0 *284:1 1.4
*END

*D_NET *285 0.00424402

*CONN
*I *597:B I *C 47.705 49.445 *L 0.00284 *D NAND2BX1
*I *594:A0 I *C 47.995 52.635 *L 0.00158 *D AOI21XL
*I *638:B I *C 48.285 44.515 *L 0.00171 *D NOR2XL
*I *595:A I *C 49.155 49.445 *L 0.00162 *D NOR2XL
*I *601:SI I *C 56.115 54.955 *L 0.00276 *D SDFFRHQX1
*I *588:Q O *C 50.315 58.145 *L 0 *D SDFFRHQX1

*CAP
1 *285:1 2.3358e-05
2 *285:2 2.3358e-05
3 *285:3 2.29811e-05
4 *285:4 4.59622e-05
5 *285:5 9.19243e-05
6 *285:6 0.000281085
7 *285:7 6.89432e-05
8 *285:8 0.000373728
9 *285:9 0.000281085
10 *285:10 2.3358e-05
11 *285:11 0.000373728
12 *285:13 0.00049604
13 *285:15 0.000472682
14 *285:17 0.000118248
15 *285:18 0.000548159
16 *285:19 0.00023884
17 *285:20 0.000429912
18 *285:21 0.00023884
19 *285:22 2.22436e-05
20 *285:23 2.36495e-05
21 *285:24 2.22436e-05
22 *285:25 2.36495e-05

*RES
1 *285:27 *588:Q 1.4
2 *285:25 *285:27 1.4
3 *285:24 *601:SI 1.4
4 *285:23 *285:25 0.124283
5 *285:22 *285:24 0.124283
6 *285:21 *285:23 1.4
7 *285:20 *285:22 1.4
8 *285:19 *285:21 1.24283
9 *285:18 *285:20 2.36138
10 *285:18 *285:19 1.4
11 *285:17 *285:18 0.621415
12 *285:15 *285:17 1.4
13 *285:13 *595:A 1.4
14 *285:13 *285:15 2.48571
15 *285:11 *638:B 1.4
16 *285:10 *285:13 0.124289
17 *285:9 *594:A0 1.4
18 *285:8 *285:11 1.98862
19 *285:7 *285:10 1.4
20 *285:6 *285:9 1.49146
21 *285:5 *285:8 1.4
22 *285:5 *285:7 0.372866
23 *285:4 *285:6 1.4
24 *285:4 *285:5 0.124289
25 *285:3 *285:4 0.124289
26 *285:2 *285:3 1.4
27 *285:1 *285:2 0.124289
28 *597:B *285:1 1.4
*END

*D_NET *286 0.00331514

*CONN
*I *638:A I *C 48.575 44.225 *L 0.00162 *D NOR2XL
*I *609:A I *C 49.155 44.225 *L 0.00162 *D NOR2XL
*I *610:B I *C 49.155 47.415 *L 0.00284 *D NAND2BX1
*I *604:A0 I *C 52.635 44.225 *L 0.00158 *D AOI21XL
*I *607:SI I *C 56.405 47.125 *L 0.00276 *D SDFFRHQX1
*I *593:Q O *C 61.335 49.155 *L 0 *D SDFFRHQX1

*CAP
1 *286:2 4.59622e-05
2 *286:3 4.59622e-05
3 *286:4 2.3358e-05
4 *286:5 0.000256938
5 *286:7 0.00027431
6 *286:8 0.00023358
7 *286:9 0.000560388
8 *286:11 0.000286077
9 *286:12 2.33434e-05
10 *286:13 0.000186747
11 *286:14 2.33434e-05
12 *286:15 0.000210091
13 *286:17 0.000352095
14 *286:18 2.33434e-05
15 *286:19 0.000352095
16 *286:21 0.000186747
17 *286:22 0.000186747
18 *286:23 2.20059e-05
19 *286:24 2.20059e-05

*RES
1 *286:25 *593:Q 1.4
2 *286:24 *286:25 1.4
3 *286:23 *286:24 0.124289
4 *286:22 *286:23 1.4
5 *286:21 *286:22 0.994261
6 *286:19 *286:21 1.4
7 *286:18 *607:SI 1.4
8 *286:17 *286:19 1.98862
9 *286:15 *286:18 0.124283
10 *286:15 *286:17 1.4
11 *286:14 *604:A0 1.4
12 *286:13 *286:15 0.994261
13 *286:12 *286:14 0.124283
14 *286:11 *286:13 1.4
15 *286:9 *286:12 1.4
16 *286:9 *286:11 1.61575
17 *286:8 *610:B 1.4
18 *286:7 *286:9 1.49146
19 *286:5 *286:8 1.24289
20 *286:5 *286:7 1.4
21 *286:4 *609:A 1.4
22 *286:4 *286:5 0.124289
23 *286:3 *286:4 1.4
24 *286:2 *286:3 0.248577
25 *286:1 *286:2 1.4
26 *638:A *286:1 1.4
*END

*D_NET *287 0.00305878

*CONN
*I *622:A0 I *C 53.795 52.635 *L 0.00158 *D AOI21XL
*I *624:A I *C 52.635 52.635 *L 0.00162 *D NOR2XL
*I *645:B I *C 51.185 52.635 *L 0.00284 *D NAND2BX1
*I *593:SI I *C 52.925 49.735 *L 0.00276 *D SDFFRHQX1
*I *601:Q O *C 47.705 54.375 *L 0 *D SDFFRHQX1
*I *632:AN I *C 47.125 47.415 *L 0.00178 *D NAND2BX1

*CAP
1 *287:1 2.22436e-05
2 *287:2 2.22436e-05
3 *287:3 8.88413e-05
4 *287:4 0.000133982
5 *287:5 2.22436e-05
6 *287:6 4.51402e-05
7 *287:7 2.22436e-05
8 *287:8 2.3884e-05
9 *287:10 0.000258253
10 *287:11 7.09486e-05
11 *287:12 0.000234369
12 *287:13 7.09486e-05
13 *287:14 0.000411222
14 *287:16 6.65054e-05
15 *287:17 0.000390678
16 *287:20 0.000377672
17 *287:21 4.59622e-05
18 *287:23 0.000377672
19 *287:24 0.000186864
20 *287:26 0.000186864

*RES
1 *287:26 *632:AN 1.4
2 *287:24 *287:26 0.99431
3 *287:23 *601:Q 1.4
4 *287:21 *287:24 1.4
5 *287:20 *287:23 1.98857
6 *287:19 *593:SI 1.4
7 *287:17 *287:21 0.248577
8 *287:17 *287:20 1.4
9 *287:16 *287:19 1.4
10 *287:15 *645:B 1.4
11 *287:14 *287:17 1.86433
12 *287:14 *287:16 0.372866
13 *287:13 *287:15 1.4
14 *287:12 *287:14 1.4
15 *287:11 *287:13 0.372849
16 *287:10 *287:12 1.24288
17 *287:10 *287:11 1.4
18 *287:8 *287:10 0.124283
19 *287:7 *624:A 1.4
20 *287:6 *287:8 1.4
21 *287:5 *287:7 0.124283
22 *287:4 *287:6 0.248566
23 *287:4 *287:5 1.4
24 *287:3 *287:4 0.497132
25 *287:2 *287:3 1.4
26 *287:1 *287:2 0.124283
27 *622:A0 *287:1 1.4
*END

*D_NET *288 0.00069094

*CONN
*I *626:A2 I *C 42.195 44.225 *L 0.00276 *D AOI31X1
*I *646:Y O *C 45.965 43.645 *L 0 *D NAND2BX1

*CAP
1 *288:1 2.3358e-05
2 *288:2 2.3358e-05
3 *288:3 0.000298754
4 *288:4 0.000298754
5 *288:5 2.3358e-05
6 *288:6 2.3358e-05

*RES
1 *288:6 *646:Y 1.4
2 *288:5 *288:6 0.124289
3 *288:4 *288:5 1.4
4 *288:3 *288:4 1.61575
5 *288:2 *288:3 1.4
6 *288:1 *288:2 0.124289
7 *626:A2 *288:1 1.4
*END

*D_NET *289 0.00251881

*CONN
*I *610:AN I *C 50.025 47.415 *L 0.00178 *D NAND2BX1
*I *609:B I *C 49.445 44.515 *L 0.00171 *D NOR2XL
*I *645:Y O *C 51.185 53.215 *L 0 *D NAND2BX1
*I *604:A1 I *C 52.055 43.935 *L 0.00163 *D AOI21XL

*CAP
1 *289:2 2.29811e-05
2 *289:3 2.29811e-05
3 *289:4 0.00023358
4 *289:5 0.000280296
5 *289:6 2.29811e-05
6 *289:7 4.67159e-05
7 *289:8 2.29811e-05
8 *289:9 0.000114905
9 *289:11 0.000183849
10 *289:13 0.000749296
11 *289:14 6.89432e-05
12 *289:15 0.000749296

*RES
1 *289:16 *604:A1 1.4
2 *289:15 *645:Y 1.4
3 *289:14 *289:16 1.4
4 *289:13 *289:15 3.97722
5 *289:11 *289:14 0.372866
6 *289:11 *289:13 1.4
7 *289:10 *609:B 1.4
8 *289:9 *289:11 0.621444
9 *289:8 *289:10 1.4
10 *289:7 *289:9 1.4
11 *289:6 *289:8 0.124289
12 *289:5 *289:7 0.248578
13 *289:5 *289:6 1.4
14 *289:4 *289:5 1.24289
15 *289:3 *289:4 1.4
16 *289:2 *289:3 0.124289
17 *289:1 *289:2 1.4
18 *610:AN *289:1 1.4
*END

*D_NET *290 0.00103762

*CONN
*I *637:B I *C 27.405 34.075 *L 0.00167 *D NAND2XL
*I *618:A1 I *C 27.985 38.715 *L 0.00274 *D AOI32X1
*I *640:Y O *C 27.6125 36.975 *L 0 *D CLKINVX1

*CAP
1 *290:2 2.29811e-05
2 *290:3 2.29811e-05
3 *290:4 0.000280296
4 *290:5 0.000280296
5 *290:6 4.59622e-05
6 *290:7 6.89432e-05
7 *290:8 2.29811e-05
8 *290:9 4.67159e-05
9 *290:10 9.34319e-05
10 *290:11 5.31595e-05
11 *290:12 9.34319e-05
12 *290:13 6.44358e-06

*RES
1 *290:13 *640:Y 1.4
2 *290:12 *618:A1 1.4
3 *290:11 *290:13 0.0342866
4 *290:10 *290:12 0.497155
5 *290:9 *290:11 0.248578
6 *290:8 *290:10 1.4
7 *290:7 *290:9 1.4
8 *290:7 *290:8 0.124289
9 *290:6 *290:7 0.248577
10 *290:5 *290:6 1.4
11 *290:4 *290:5 1.49146
12 *290:3 *290:4 1.4
13 *290:2 *290:3 0.124289
14 *290:1 *290:2 1.4
15 *637:B *290:1 1.4
*END

*D_NET *291 0.00427462

*CONN
*I *618:A2 I *C 28.275 38.715 *L 0.00279 *D AOI32X1
*I *623:A0 I *C 34.075 36.685 *L 0.00257 *D OAI32X1
*I *635:A1N I *C 29.435 33.785 *L 0.00169 *D AOI2BB1X1
*I *644:Y O *C 42.2775 42.195 *L 0 *D CLKINVX1
*I *626:B0 I *C 42.485 44.225 *L 0.00277 *D AOI31X1

*CAP
1 *291:2 2.29811e-05
2 *291:3 2.29811e-05
3 *291:4 0.000163506
4 *291:5 0.000163506
5 *291:6 6.89432e-05
6 *291:7 0.000436641
7 *291:8 0.000896262
8 *291:9 0.00023358
9 *291:10 0.000528565
10 *291:12 0.00023358
11 *291:13 0.000303654
12 *291:16 0.000303654
13 *291:17 0.000114905
14 *291:18 0.000114905
15 *291:19 0.000140148
16 *291:20 0.0003105
17 *291:21 6.8463e-06
18 *291:22 0.000163506
19 *291:24 2.29811e-05
20 *291:25 2.29811e-05

*RES
1 *291:26 *626:B0 1.4
2 *291:25 *291:26 1.4
3 *291:24 *291:25 0.124289
4 *291:22 *291:24 1.4
5 *291:21 *644:Y 1.4
6 *291:20 *291:22 0.870021
7 *291:20 *291:21 0.0364295
8 *291:19 *291:20 0.745732
9 *291:18 *291:19 1.4
10 *291:17 *291:18 0.621444
11 *291:16 *291:17 1.4
12 *291:13 *291:16 1.61575
13 *291:12 *635:A1N 1.4
14 *291:11 *623:A0 1.4
15 *291:10 *291:13 1.4
16 *291:9 *291:12 1.24289
17 *291:8 *291:11 1.4
18 *291:8 *291:10 2.85864
19 *291:7 *291:9 1.4
20 *291:7 *291:8 1.98862
21 *291:6 *291:7 0.372866
22 *291:5 *291:6 1.4
23 *291:4 *291:5 0.870021
24 *291:3 *291:4 1.4
25 *291:2 *291:3 0.124289
26 *291:1 *291:2 1.4
27 *618:A2 *291:1 1.4
*END

*D_NET *292 0.000336182

*CONN
*I *631:B1 I *C 42.775 31.755 *L 0.00284 *D AOI32X1
*I *643:Y O *C 44.5975 31.465 *L 0 *D INVXL

*CAP
1 *292:2 0.000137886
2 *292:3 0.000137886
3 *292:4 2.3358e-05
4 *292:5 3.02043e-05
5 *292:6 6.8463e-06

*RES
1 *292:6 *643:Y 1.4
2 *292:5 *292:6 0.0364295
3 *292:4 *292:5 0.124289
4 *292:3 *292:4 1.4
5 *292:2 *292:3 0.745732
6 *292:1 *292:2 1.4
7 *631:B1 *292:1 1.4
*END

*D_NET *293 0.00274576

*CONN
*I *630:A0N I *C 34.655 31.755 *L 0.00173 *D OAI2BB1X1
*I *619:A0 I *C 35.525 33.785 *L 0.00271 *D OAI21X1
*I *623:B0 I *C 35.815 36.975 *L 0.00272 *D OAI32X1
*I *631:A2 I *C 41.905 32.045 *L 0.00279 *D AOI32X1
*I *642:Y O *C 37.4725 36.975 *L 0 *D CLKINVX1

*CAP
1 *293:1 2.3358e-05
2 *293:2 2.3358e-05
3 *293:3 6.89432e-05
4 *293:4 9.19243e-05
5 *293:5 2.29811e-05
6 *293:6 0.000186864
7 *293:7 4.67159e-05
8 *293:8 0.000186864
9 *293:9 0.000443802
10 *293:11 0.000397086
11 *293:12 0.000482603
12 *293:13 0.000137886
13 *293:15 0.000482603
14 *293:16 0.000137886
15 *293:18 6.44358e-06
16 *293:20 6.44358e-06

*RES
1 *293:20 *642:Y 1.4
2 *293:18 *293:20 0.0342866
3 *293:17 *631:A2 1.4
4 *293:16 *293:18 1.4
5 *293:15 *293:17 1.4
6 *293:13 *293:16 0.745732
7 *293:12 *293:15 2.61006
8 *293:11 *623:B0 1.4
9 *293:11 *293:13 1.4
10 *293:9 *293:12 1.4
11 *293:9 *293:11 2.11291
12 *293:8 *619:A0 1.4
13 *293:7 *293:9 0.248578
14 *293:6 *293:8 0.99431
15 *293:5 *293:7 1.4
16 *293:4 *293:6 1.4
17 *293:4 *293:5 0.124289
18 *293:3 *293:4 0.372866
19 *293:2 *293:3 1.4
20 *293:1 *293:2 0.124289
21 *630:A0N *293:1 1.4
*END

*D_NET *294 0.00140763

*CONN
*I *631:A1 I *C 41.615 32.045 *L 0.00274 *D AOI32X1
*I *606:B0 I *C 42.775 36.975 *L 0.00262 *D OAI22X1
*I *641:Y O *C 44.5975 36.975 *L 0 *D INVX1

*CAP
1 *294:1 0.000420444
2 *294:2 0.000420444
3 *294:3 9.19243e-05
4 *294:4 0.000229811
5 *294:5 0.000137886
6 *294:6 2.3358e-05
7 *294:7 2.3358e-05
8 *294:8 2.3358e-05
9 *294:9 3.02043e-05
10 *294:11 6.8463e-06

*RES
1 *294:11 *641:Y 1.4
2 *294:9 *294:11 0.0364295
3 *294:8 *606:B0 1.4
4 *294:7 *294:9 0.124289
5 *294:6 *294:8 0.124289
6 *294:5 *294:7 1.4
7 *294:4 *294:6 1.4
8 *294:4 *294:5 0.745732
9 *294:3 *294:4 0.497155
10 *294:2 *294:3 1.4
11 *294:1 *294:2 2.2372
12 *631:A1 *294:1 1.4
*END

*D_NET *295 0.0014231

*CONN
*I *624:B I *C 52.925 52.345 *L 0.00171 *D NOR2XL
*I *645:AN I *C 52.055 52.635 *L 0.00178 *D NAND2BX1
*I *622:A1 I *C 54.375 52.925 *L 0.00163 *D AOI21XL
*I *639:Y O *C 60.465 52.925 *L 0 *D NAND2XL

*CAP
1 *295:1 2.22436e-05
2 *295:2 2.22436e-05
3 *295:3 0.000178402
4 *295:4 0.000577468
5 *295:5 6.73506e-05
6 *295:6 0.000466417
7 *295:7 2.22436e-05
8 *295:9 2.22436e-05
9 *295:10 2.22436e-05
10 *295:12 2.22436e-05

*RES
1 *295:12 *639:Y 1.4
2 *295:10 *622:A1 1.4
3 *295:9 *295:12 0.124283
4 *295:8 *645:AN 1.4
5 *295:7 *295:10 0.124283
6 *295:6 *295:9 1.4
7 *295:5 *295:8 1.4
8 *295:4 *295:7 1.4
9 *295:4 *295:6 2.60994
10 *295:3 *295:5 0.372849
11 *295:3 *295:4 0.621415
12 *295:2 *295:3 1.4
13 *295:1 *295:2 0.124283
14 *624:B *295:1 1.4
*END

*D_NET *296 0.000835611

*CONN
*I *646:B I *C 45.965 44.225 *L 0.00284 *D NAND2BX1
*I *632:B I *C 46.255 47.415 *L 0.00284 *D NAND2BX1
*I *638:Y O *C 47.995 44.805 *L 0 *D NOR2XL

*CAP
1 *296:2 2.29811e-05
2 *296:3 2.29811e-05
3 *296:4 4.67159e-05
4 *296:5 0.000256938
5 *296:6 0.000137886
6 *296:7 0.000210222
7 *296:8 0.000137886

*RES
1 *296:10 *638:Y 1.4
2 *296:8 *296:10 1.4
3 *296:7 *632:B 1.4
4 *296:6 *296:8 0.745732
5 *296:5 *296:7 1.1186
6 *296:5 *296:6 1.4
7 *296:4 *296:5 0.248578
8 *296:3 *296:4 1.4
9 *296:2 *296:3 0.124289
10 *296:1 *296:2 1.4
11 *646:B *296:1 1.4
*END

*D_NET *297 0.000874789

*CONN
*I *630:A1N I *C 35.235 31.465 *L 0.0017 *D OAI2BB1X1
*I *636:Y O *C 40.165 32.045 *L 0 *D NAND2XL

*CAP
1 *297:1 2.3358e-05
2 *297:2 2.3358e-05
3 *297:3 0.000390678
4 *297:4 0.000390678
5 *297:5 2.3358e-05
6 *297:6 2.3358e-05

*RES
1 *297:6 *636:Y 1.4
2 *297:5 *297:6 0.124289
3 *297:4 *297:5 1.4
4 *297:3 *297:4 2.11291
5 *297:2 *297:3 1.4
6 *297:1 *297:2 0.124289
7 *630:A1N *297:1 1.4
*END

*D_NET *298 0.00217756

*CONN
*I *623:A1 I *C 34.365 36.685 *L 0.00271 *D OAI32X1
*I *628:AN I *C 32.625 33.785 *L 0.00178 *D NAND3BX1
*I *621:A0 I *C 29.725 36.975 *L 0.00271 *D OAI21X1
*I *637:Y O *C 27.405 33.495 *L 0 *D NAND2XL

*CAP
1 *298:1 4.67159e-05
2 *298:2 4.67159e-05
3 *298:3 0.000137886
4 *298:4 0.000137886
5 *298:5 0.000210222
6 *298:6 2.3358e-05
7 *298:7 0.000186864
8 *298:8 0.000229811
9 *298:10 0.000413659
10 *298:11 4.67159e-05
11 *298:12 0.000183849
12 *298:13 4.67159e-05
13 *298:14 0.00023358
14 *298:16 0.00023358

*RES
1 *298:16 *637:Y 1.4
2 *298:14 *298:16 1.24289
3 *298:13 *621:A0 1.4
4 *298:12 *298:14 1.4
5 *298:11 *298:13 0.248578
6 *298:10 *298:12 0.99431
7 *298:10 *298:11 1.4
8 *298:8 *298:10 1.24289
9 *298:7 *628:AN 1.4
10 *298:6 *298:8 1.4
11 *298:5 *298:7 0.99431
12 *298:5 *298:6 0.124289
13 *298:4 *298:5 1.4
14 *298:3 *298:4 0.745732
15 *298:2 *298:3 1.4
16 *298:1 *298:2 0.248578
17 *623:A1 *298:1 1.4
*END

*D_NET *299 0.000133262

*CONN
*I *612:A I *C 62.495 52.635 *L 0.00162 *D NOR2XL
*I *633:Y O *C 63.365 52.635 *L 0 *D XNOR2XL

*CAP
1 *299:2 6.6631e-05
2 *299:3 6.6631e-05

*RES
1 *299:4 *633:Y 1.4
2 *299:3 *299:4 1.4
3 *299:2 *299:3 0.372849
4 *299:1 *299:2 1.4
5 *612:A *299:1 1.4
*END

*D_NET *300 0.00148134

*CONN
*I *619:B0 I *C 36.395 33.785 *L 0.0028 *D OAI21X1
*I *623:B1 I *C 35.235 36.685 *L 0.00282 *D OAI32X1
*I *635:Y O *C 31.175 33.785 *L 0 *D AOI2BB1X1

*CAP
1 *300:1 4.67159e-05
2 *300:2 4.67159e-05
3 *300:3 9.19243e-05
4 *300:4 9.19243e-05
5 *300:5 0.000256938
6 *300:6 0.000186864
7 *300:7 7.00739e-05
8 *300:9 0.000321735
9 *300:10 0.000321735
10 *300:11 2.3358e-05
11 *300:12 2.3358e-05

*RES
1 *300:12 *635:Y 1.4
2 *300:11 *300:12 0.124289
3 *300:10 *300:11 1.4
4 *300:9 *300:10 1.74004
5 *300:7 *300:9 1.4
6 *300:6 *623:B1 1.4
7 *300:5 *300:7 0.372866
8 *300:5 *300:6 0.99431
9 *300:4 *300:5 1.4
10 *300:3 *300:4 0.497155
11 *300:2 *300:3 1.4
12 *300:1 *300:2 0.248578
13 *619:B0 *300:1 1.4
*END

*D_NET *301 0.00457364

*CONN
*I *630:B0 I *C 34.365 31.465 *L 0.00273 *D OAI2BB1X1
*I *628:C I *C 33.785 33.785 *L 0.00289 *D NAND3BX1
*I *634:Y O *C 14.355 36.395 *L 0 *D NAND4BXL

*CAP
1 *301:2 2.29811e-05
2 *301:3 2.29811e-05
3 *301:4 0.000186864
4 *301:5 0.000186864
5 *301:6 6.89432e-05
6 *301:7 0.00171876
7 *301:9 0.00164982
8 *301:11 0.000204831
9 *301:12 0.000204831
10 *301:13 0.000153384
11 *301:14 0.000153384

*RES
1 *301:15 *634:Y 1.4
2 *301:14 *301:15 1.4
3 *301:13 *301:14 0.869981
4 *301:12 *301:13 1.4
5 *301:11 *301:12 1.1186
6 *301:9 *301:11 1.4
7 *301:8 *628:C 1.4
8 *301:7 *301:9 9.19709
9 *301:7 *301:8 1.4
10 *301:6 *301:7 0.372866
11 *301:5 *301:6 1.4
12 *301:4 *301:5 0.99431
13 *301:3 *301:4 1.4
14 *301:2 *301:3 0.124289
15 *301:1 *301:2 1.4
16 *630:B0 *301:1 1.4
*END

*D_NET *302 0.000601277

*CONN
*I *627:A2 I *C 43.935 49.445 *L 0.00276 *D AOI31X1
*I *632:Y O *C 46.255 47.995 *L 0 *D NAND2BX1

*CAP
1 *302:2 0.000183849
2 *302:3 0.000183849
3 *302:4 0.00011679
4 *302:5 0.00011679

*RES
1 *302:5 *632:Y 1.4
2 *302:4 *302:5 0.621444
3 *302:3 *302:4 1.4
4 *302:2 *302:3 0.99431
5 *302:1 *302:2 1.4
6 *627:A2 *302:1 1.4
*END

*D_NET *303 0.000932811

*CONN
*I *606:A1 I *C 41.905 36.685 *L 0.00277 *D OAI22X1
*I *631:Y O *C 42.485 31.465 *L 0 *D AOI32X1

*CAP
1 *303:2 2.29811e-05
2 *303:3 2.29811e-05
3 *303:4 0.000420444
4 *303:5 0.000420444
5 *303:6 2.29811e-05
6 *303:7 2.29811e-05

*RES
1 *303:8 *631:Y 1.4
2 *303:7 *303:8 1.4
3 *303:6 *303:7 0.124289
4 *303:5 *303:6 1.4
5 *303:4 *303:5 2.2372
6 *303:3 *303:4 1.4
7 *303:2 *303:3 0.124289
8 *303:1 *303:2 1.4
9 *606:A1 *303:1 1.4
*END

*D_NET *304 0.00134647

*CONN
*I *629:A I *C 33.205 36.975 *L 0.00273 *D INVX1
*I *623:A2 I *C 34.655 36.685 *L 0.00281 *D OAI32X1
*I *630:Y O *C 33.495 31.755 *L 0 *D OAI2BB1X1

*CAP
1 *304:2 0.000114905
2 *304:3 0.000114905
3 *304:4 2.3358e-05
4 *304:5 2.3358e-05
5 *304:6 2.29811e-05
6 *304:8 2.29811e-05
7 *304:9 0.000397086
8 *304:10 0.000397086
9 *304:11 0.000114905
10 *304:12 0.000114905

*RES
1 *304:13 *630:Y 1.4
2 *304:12 *304:13 1.4
3 *304:11 *304:12 0.621444
4 *304:10 *304:11 1.4
5 *304:9 *304:10 2.11291
6 *304:8 *304:9 1.4
7 *304:6 *304:8 0.124289
8 *304:5 *623:A2 1.4
9 *304:5 *304:6 1.4
10 *304:4 *304:5 0.124289
11 *304:3 *304:4 1.4
12 *304:2 *304:3 0.621444
13 *304:1 *304:2 1.4
14 *629:A *304:1 1.4
*END

*D_NET *305 0.000519225

*CONN
*I *621:A1 I *C 30.015 36.685 *L 0.00274 *D OAI21X1
*I *629:Y O *C 32.8325 36.975 *L 0 *D INVX1

*CAP
1 *305:1 2.3358e-05
2 *305:2 2.3358e-05
3 *305:3 0.000229811
4 *305:4 0.000229811
5 *305:5 6.44358e-06
6 *305:6 6.44358e-06

*RES
1 *305:6 *629:Y 1.4
2 *305:5 *305:6 0.0342866
3 *305:4 *305:5 1.4
4 *305:3 *305:4 1.24289
5 *305:2 *305:3 1.4
6 *305:1 *305:2 0.124289
7 *621:A1 *305:1 1.4
*END

*D_NET *306 0.00115961

*CONN
*I *616:A0 I *C 43.645 47.415 *L 0.00271 *D OAI21X1
*I *626:Y O *C 42.195 43.935 *L 0 *D AOI31X1

*CAP
1 *306:1 2.3358e-05
2 *306:2 2.3358e-05
3 *306:3 0.000183849
4 *306:4 0.000183849
5 *306:5 0.000303654
6 *306:6 0.000303654
7 *306:7 6.89432e-05
8 *306:8 6.89432e-05

*RES
1 *306:9 *626:Y 1.4
2 *306:8 *306:9 1.4
3 *306:7 *306:8 0.372866
4 *306:6 *306:7 1.4
5 *306:5 *306:6 1.61575
6 *306:4 *306:5 1.4
7 *306:3 *306:4 0.99431
8 *306:2 *306:3 1.4
9 *306:1 *306:2 0.124289
10 *616:A0 *306:1 1.4
*END

*D_NET *307 0.00399571

*CONN
*I *606:A0 I *C 41.615 36.685 *L 0.00265 *D OAI22X1
*I *620:C0 I *C 39.875 33.785 *L 0.00281 *D AOI211X1
*I *619:A1 I *C 35.815 34.075 *L 0.00274 *D OAI21X1
*I *613:A I *C 36.105 47.125 *L 0.00157 *D NAND2XL
*I *628:Y O *C 34.075 34.365 *L 0 *D NAND3BX1

*CAP
1 *307:2 2.29811e-05
2 *307:3 2.29811e-05
3 *307:4 0.00023358
4 *307:5 0.00023358
5 *307:6 0.000160868
6 *307:7 0.000482603
7 *307:9 0.000321735
8 *307:11 2.3358e-05
9 *307:12 2.3358e-05
10 *307:13 0.000160868
11 *307:15 2.29811e-05
12 *307:16 0.000137886
13 *307:17 0.00105111
14 *307:18 2.3358e-05
15 *307:19 0.00105111
16 *307:20 2.3358e-05

*RES
1 *307:20 *628:Y 1.4
2 *307:19 *613:A 1.4
3 *307:18 *307:20 0.124289
4 *307:17 *307:19 5.59299
5 *307:16 *307:18 1.4
6 *307:15 *307:17 1.4
7 *307:13 *307:16 0.745732
8 *307:13 *307:15 0.124289
9 *307:12 *619:A1 1.4
10 *307:12 *307:13 1.4
11 *307:11 *307:12 0.124289
12 *307:9 *307:11 1.4
13 *307:8 *620:C0 1.4
14 *307:7 *307:9 1.74004
15 *307:7 *307:8 1.4
16 *307:6 *307:7 0.870021
17 *307:5 *307:6 1.4
18 *307:4 *307:5 1.24289
19 *307:3 *307:4 1.4
20 *307:2 *307:3 0.124289
21 *307:1 *307:2 1.4
22 *606:A0 *307:1 1.4
*END

*D_NET *308 0.0031028

*CONN
*I *625:A I *C 29.715 44.4525 *L 0.00163 *D INVXL
*I *616:A1 I *C 43.935 47.125 *L 0.00274 *D OAI21X1
*I *627:Y O *C 43.935 49.155 *L 0 *D AOI31X1

*CAP
1 *308:1 8.05447e-07
2 *308:2 5.63813e-06
3 *308:3 4.83268e-06
4 *308:4 2.29811e-05
5 *308:5 2.29811e-05
6 *308:6 0.000210222
7 *308:7 0.000210222
8 *308:8 0.00114905
9 *308:9 0.00114905
10 *308:10 0.000163506
11 *308:11 0.000163506

*RES
1 *308:11 *627:Y 1.4
2 *308:10 *616:A1 1.4
3 *308:10 *308:11 0.870021
4 *308:9 *308:10 1.4
5 *308:8 *308:9 6.21444
6 *308:7 *308:8 1.4
7 *308:6 *308:7 1.1186
8 *308:5 *308:6 1.4
9 *308:4 *308:5 0.124289
10 *308:3 *308:4 1.4
11 *308:2 *308:3 0.0257149
12 *308:1 *308:2 0.00428582
13 *625:A *308:1 1.4
*END

*D_NET *309 0.000946452

*CONN
*I *618:B1 I *C 29.145 39.005 *L 0.00284 *D AOI32X1
*I *625:Y O *C 29.3525 44.515 *L 0 *D INVXL

*CAP
1 *309:1 0.000443802
2 *309:2 0.000443802
3 *309:3 2.29811e-05
4 *309:4 2.29811e-05
5 *309:5 6.44358e-06
6 *309:6 6.44358e-06

*RES
1 *309:6 *625:Y 1.4
2 *309:5 *309:6 0.0342866
3 *309:4 *309:5 1.4
4 *309:3 *309:4 0.124289
5 *309:2 *309:3 1.4
6 *309:1 *309:2 2.36149
7 *618:B1 *309:1 1.4
*END

*D_NET *310 0.000354146

*CONN
*I *622:B0 I *C 54.955 52.635 *L 0.00166 *D AOI21XL
*I *624:Y O *C 53.215 52.055 *L 0 *D NOR2XL

*CAP
1 *310:1 4.50372e-05
2 *310:2 4.50372e-05
3 *310:3 0.000132036
4 *310:4 0.000132036

*RES
1 *310:5 *624:Y 1.4
2 *310:4 *310:5 1.4
3 *310:3 *310:4 0.745732
4 *310:2 *310:3 1.4
5 *310:1 *310:2 0.248565
6 *622:B0 *310:1 1.4
*END

*D_NET *311 0.00116564

*CONN
*I *615:D I *C 34.075 42.195 *L 0.00276 *D SDFFRHQX1
*I *623:Y O *C 34.945 35.815 *L 0 *D OAI32X1

*CAP
1 *311:2 4.59622e-05
2 *311:3 4.59622e-05
3 *311:4 0.000513875
4 *311:5 0.000513875
5 *311:6 2.29811e-05
6 *311:7 2.29811e-05

*RES
1 *311:8 *623:Y 1.4
2 *311:7 *311:8 1.4
3 *311:6 *311:7 0.124289
4 *311:5 *311:6 1.4
5 *311:4 *311:5 2.73435
6 *311:3 *311:4 1.4
7 *311:2 *311:3 0.248577
8 *311:1 *311:2 1.4
9 *615:D *311:1 1.4
*END

*D_NET *312 0.000206129

*CONN
*I *614:A I *C 55.535 52.635 *L 0.00162 *D NOR2XL
*I *622:Y O *C 54.775 53 *L 0 *D AOI21XL

*CAP
1 *312:2 6.6631e-05
2 *312:3 6.6631e-05
3 *312:4 2.79963e-05
4 *312:5 3.64335e-05
5 *312:6 8.43724e-06

*RES
1 *312:6 *622:Y 1.4
2 *312:5 *312:6 0.0471417
3 *312:4 *312:5 0.156425
4 *312:3 *312:4 1.4
5 *312:2 *312:3 0.372849
6 *312:1 *312:2 1.4
7 *614:A *312:1 1.4
*END

*D_NET *313 0.000372974

*CONN
*I *611:A I *C 31.175 39.295 *L 0.00157 *D NAND2XL
*I *621:Y O *C 30.885 37.265 *L 0 *D OAI21X1

*CAP
1 *313:2 2.29811e-05
2 *313:3 2.29811e-05
3 *313:4 0.000163506
4 *313:5 0.000163506

*RES
1 *313:5 *621:Y 1.4
2 *313:4 *313:5 0.870021
3 *313:3 *313:4 1.4
4 *313:2 *313:3 0.124289
5 *313:1 *313:2 1.4
6 *611:A *313:1 1.4
*END

*D_NET *314 0.000510106

*CONN
*I *605:B0 I *C 37.845 31.755 *L 0.00175 *D AO21X1
*I *620:Y O *C 39.295 33.495 *L 0 *D AOI211X1

*CAP
1 *314:1 0.000140148
2 *314:2 0.000140148
3 *314:3 0.000114905
4 *314:4 0.000114905

*RES
1 *314:5 *620:Y 1.4
2 *314:4 *314:5 1.4
3 *314:3 *314:4 0.621444
4 *314:2 *314:3 1.4
5 *314:1 *314:2 0.745732
6 *605:B0 *314:1 1.4
*END

*D_NET *315 0.000459622

*CONN
*I *611:B I *C 31.755 39.295 *L 0.00167 *D NAND2XL
*I *618:Y O *C 28.855 39.295 *L 0 *D AOI32X1

*CAP
1 *315:2 0.000229811
2 *315:3 0.000229811

*RES
1 *315:4 *618:Y 1.4
2 *315:3 *315:4 1.4
3 *315:2 *315:3 1.24289
4 *315:1 *315:2 1.4
5 *611:B *315:1 1.4
*END

*D_NET *316 0.00126587

*CONN
*I *617:A I *C 39.595 36.7475 *L 0.00163 *D INVXL
*I *605:A1 I *C 38.425 32.045 *L 0.00163 *D AO21X1
*I *619:Y O *C 36.685 33.495 *L 0 *D OAI21X1

*CAP
1 *316:1 8.05447e-07
2 *316:2 0.000286337
3 *316:3 0.000285531
4 *316:4 9.19243e-05
5 *316:5 0.000229811
6 *316:6 9.34319e-05
7 *316:7 0.000137886
8 *316:8 9.34319e-05
9 *316:9 2.3358e-05
10 *316:11 2.3358e-05

*RES
1 *316:11 *619:Y 1.4
2 *316:9 *316:11 0.124289
3 *316:8 *605:A1 1.4
4 *316:7 *316:9 1.4
5 *316:6 *316:8 0.497155
6 *316:5 *316:7 0.745732
7 *316:5 *316:6 1.4
8 *316:4 *316:5 0.497155
9 *316:3 *316:4 1.4
10 *316:2 *316:3 1.51932
11 *316:1 *316:2 0.00428582
12 *617:A *316:1 1.4
*END

*D_NET *317 0.000520784

*CONN
*I *606:B1 I *C 42.485 36.685 *L 0.00282 *D OAI22X1
*I *617:Y O *C 39.9575 36.685 *L 0 *D INVXL

*CAP
1 *317:1 2.3358e-05
2 *317:2 2.3358e-05
3 *317:3 0.00020683
4 *317:4 0.00020683
5 *317:5 2.3358e-05
6 *317:6 3.02043e-05
7 *317:7 6.8463e-06

*RES
1 *317:7 *617:Y 1.4
2 *317:6 *317:7 0.0364295
3 *317:5 *317:6 0.124289
4 *317:4 *317:5 1.4
5 *317:3 *317:4 1.1186
6 *317:2 *317:3 1.4
7 *317:1 *317:2 0.124289
8 *606:B1 *317:1 1.4
*END

*D_NET *318 0.00830063

*CONN
*I *613:B I *C 36.685 47.125 *L 0.00167 *D NAND2XL
*I *581:A I *C 39.005 47.415 *L 0.00162 *D NOR2XL
*I *583:A I *C 39.005 52.635 *L 0.00162 *D NOR2XL
*I *616:Y O *C 44.805 47.705 *L 0 *D OAI21X1
*I *591:B I *C 50.025 52.345 *L 0.00171 *D NOR2XL
*I *596:B I *C 53.505 47.125 *L 0.00171 *D NOR2XL
*I *614:B I *C 55.825 52.345 *L 0.00171 *D NOR2XL
*I *612:B I *C 62.205 52.345 *L 0.00171 *D NOR2XL
*I *608:B I *C 62.205 49.735 *L 0.00171 *D NOR2XL
*I *586:A I *C 45.965 54.665 *L 0.00162 *D NOR2XL

*CAP
1 *318:1 4.67159e-05
2 *318:2 4.67159e-05
3 *318:3 0.000183849
4 *318:4 0.000183849
5 *318:5 7.00739e-05
6 *318:6 7.00739e-05
7 *318:7 2.29811e-05
8 *318:9 2.29811e-05
9 *318:10 0.000467948
10 *318:11 0.000421233
11 *318:12 4.67159e-05
12 *318:13 2.36495e-05
13 *318:14 0.000298754
14 *318:15 2.36495e-05
15 *318:16 0.000298754
16 *318:18 4.67159e-05
17 *318:20 4.67159e-05
18 *318:21 0.000137886
19 *318:22 0.000505584
20 *318:23 2.3358e-05
21 *318:24 0.000367697
22 *318:25 2.3358e-05
23 *318:26 0.000420707
24 *318:28 0.000397349
25 *318:29 2.3358e-05
26 *318:30 4.72991e-05
27 *318:31 0.000317347
28 *318:32 0.000502299
29 *318:33 0.000317347
30 *318:34 0.000943627
31 *318:35 9.55358e-05
32 *318:37 0.000488627
33 *318:39 9.55358e-05
34 *318:42 0.000209541
35 *318:44 0.000331093
36 *318:46 0.000209541
37 *318:47 0.000331093
38 *318:49 9.55358e-05
39 *318:50 9.55358e-05

*RES
1 *318:50 *586:A 1.4
2 *318:49 *318:50 0.497131
3 *318:47 *318:49 1.4
4 *318:46 *608:B 1.4
5 *318:44 *318:47 1.73996
6 *318:42 *318:46 1.11854
7 *318:42 *612:B 1.4
8 *318:39 *318:44 1.4
9 *318:38 *614:B 1.4
10 *318:37 *318:42 1.4
11 *318:36 *596:B 1.4
12 *318:35 *591:B 1.4
13 *318:35 *318:39 0.497131
14 *318:34 *318:38 1.4
15 *318:34 *318:37 2.73423
16 *318:33 *318:36 1.4
17 *318:32 *318:35 1.4
18 *318:32 *318:34 2.48566
19 *318:31 *318:33 1.74004
20 *318:30 *318:32 0.248566
21 *318:29 *318:31 1.4
22 *318:28 *318:30 1.4
23 *318:26 *318:29 0.124289
24 *318:26 *318:28 2.11291
25 *318:25 *616:Y 1.4
26 *318:24 *318:26 1.4
27 *318:23 *318:25 0.124289
28 *318:22 *318:24 1.98862
29 *318:22 *318:23 1.4
30 *318:21 *318:22 0.745732
31 *318:20 *318:21 1.4
32 *318:18 *318:20 0.248578
33 *318:17 *583:A 1.4
34 *318:16 *318:18 1.4
35 *318:15 *318:17 1.4
36 *318:14 *318:16 1.61575
37 *318:13 *318:15 0.124283
38 *318:12 *318:14 1.4
39 *318:11 *318:13 1.4
40 *318:10 *318:12 0.248578
41 *318:10 *318:11 2.23719
42 *318:9 *318:10 1.4
43 *318:7 *318:9 0.124289
44 *318:6 *581:A 1.4
45 *318:6 *318:7 1.4
46 *318:5 *318:6 0.372866
47 *318:4 *318:5 1.4
48 *318:3 *318:4 0.99431
49 *318:2 *318:3 1.4
50 *318:1 *318:2 0.248578
51 *613:B *318:1 1.4
*END

*D_NET *319 0.000622362

*CONN
*I *601:D I *C 54.665 54.665 *L 0.00276 *D SDFFRHQX1
*I *614:Y O *C 56.115 52.055 *L 0 *D NOR2XL

*CAP
1 *319:2 4.44206e-05
2 *319:3 4.44206e-05
3 *319:4 0.000200743
4 *319:5 0.000200743
5 *319:6 6.60178e-05
6 *319:7 6.60178e-05

*RES
1 *319:8 *614:Y 1.4
2 *319:7 *319:8 1.4
3 *319:6 *319:7 0.372866
4 *319:5 *319:6 1.4
5 *319:4 *319:5 1.11854
6 *319:3 *319:4 1.4
7 *319:2 *319:3 0.248566
8 *319:1 *319:2 1.4
9 *601:D *319:1 1.4
*END

*D_NET *320 0.000645732

*CONN
*I *602:D I *C 33.495 47.415 *L 0.00276 *D SDFFRHQX1
*I *613:Y O *C 36.685 47.705 *L 0 *D NAND2XL

*CAP
1 *320:1 4.67159e-05
2 *320:2 4.67159e-05
3 *320:3 0.000252792
4 *320:4 0.000252792
5 *320:5 2.3358e-05
6 *320:6 2.3358e-05

*RES
1 *320:6 *613:Y 1.4
2 *320:5 *320:6 0.124289
3 *320:4 *320:5 1.4
4 *320:3 *320:4 1.36718
5 *320:2 *320:3 1.4
6 *320:1 *320:2 0.248578
7 *602:D *320:1 1.4
*END

*D_NET *321 0.0006676

*CONN
*I *600:D I *C 60.175 54.665 *L 0.00276 *D SDFFRHQX1
*I *612:Y O *C 61.915 52.055 *L 0 *D NOR2XL

*CAP
1 *321:2 0.000111052
2 *321:3 0.000111052
3 *321:4 0.000200743
4 *321:5 0.000200743
5 *321:6 2.20059e-05
6 *321:7 2.20059e-05

*RES
1 *321:8 *612:Y 1.4
2 *321:7 *321:8 1.4
3 *321:6 *321:7 0.124289
4 *321:5 *321:6 1.4
5 *321:4 *321:5 1.11854
6 *321:3 *321:4 1.4
7 *321:2 *321:3 0.621415
8 *321:1 *321:2 1.4
9 *600:D *321:1 1.4
*END

*D_NET *322 0.000979527

*CONN
*I *603:D I *C 32.335 44.225 *L 0.00276 *D SDFFRHQX1
*I *611:Y O *C 31.755 38.715 *L 0 *D NAND2XL

*CAP
1 *322:2 2.29811e-05
2 *322:3 2.29811e-05
3 *322:4 0.000443802
4 *322:5 0.000443802
5 *322:6 2.29811e-05
6 *322:7 2.29811e-05

*RES
1 *322:8 *611:Y 1.4
2 *322:7 *322:8 1.4
3 *322:6 *322:7 0.124289
4 *322:5 *322:6 1.4
5 *322:4 *322:5 2.36149
6 *322:3 *322:4 1.4
7 *322:2 *322:3 0.124289
8 *322:1 *322:2 1.4
9 *603:D *322:1 1.4
*END

*D_NET *323 0.000369205

*CONN
*I *604:B0 I *C 51.475 44.225 *L 0.00166 *D AOI21XL
*I *609:Y O *C 49.735 44.805 *L 0 *D NOR2XL

*CAP
1 *323:1 4.67159e-05
2 *323:2 4.67159e-05
3 *323:3 0.000137886
4 *323:4 0.000137886

*RES
1 *323:5 *609:Y 1.4
2 *323:4 *323:5 1.4
3 *323:3 *323:4 0.745732
4 *323:2 *323:3 1.4
5 *323:1 *323:2 0.248578
6 *604:B0 *323:1 1.4
*END

*D_NET *324 0.00103635

*CONN
*I *607:D I *C 57.855 47.415 *L 0.00276 *D SDFFRHQX1
*I *608:Y O *C 61.915 50.025 *L 0 *D NOR2XL

*CAP
1 *324:1 0.000210091
2 *324:2 0.000210091
3 *324:3 0.000308083
4 *324:4 0.000308083

*RES
1 *324:5 *608:Y 1.4
2 *324:4 *324:5 1.4
3 *324:3 *324:4 1.74004
4 *324:2 *324:3 1.4
5 *324:1 *324:2 1.11854
6 *607:D *324:1 1.4
*END

*D_NET *325 0.00102795

*CONN
*I *594:A1 I *C 48.575 52.925 *L 0.00163 *D AOI21XL
*I *595:B I *C 49.445 49.735 *L 0.00171 *D NOR2XL
*I *597:AN I *C 48.575 49.445 *L 0.00178 *D NAND2BX1
*I *610:Y O *C 49.155 47.995 *L 0 *D NAND2BX1

*CAP
1 *325:2 2.36495e-05
2 *325:3 2.36495e-05
3 *325:4 0.000258253
4 *325:5 0.000281611
5 *325:6 4.59622e-05
6 *325:7 0.000140148
7 *325:8 4.59622e-05
8 *325:9 2.29811e-05
9 *325:10 0.00011679
10 *325:12 2.29811e-05
11 *325:13 2.29811e-05
12 *325:16 2.29811e-05

*RES
1 *325:18 *610:Y 1.4
2 *325:16 *325:18 1.4
3 *325:15 *597:AN 1.4
4 *325:13 *325:16 0.124289
5 *325:12 *325:15 1.4
6 *325:11 *595:B 1.4
7 *325:10 *325:13 1.4
8 *325:9 *325:12 0.124289
9 *325:8 *325:11 1.4
10 *325:7 *325:10 0.621444
11 *325:7 *325:9 1.4
12 *325:6 *325:8 0.248577
13 *325:5 *325:7 0.124289
14 *325:5 *325:6 1.4
15 *325:4 *325:5 1.36716
16 *325:3 *325:4 1.4
17 *325:2 *325:3 0.124283
18 *325:1 *325:2 1.4
19 *594:A1 *325:1 1.4
*END

*D_NET *326 0.000929796

*CONN
*I *599:D I *C 40.455 39.005 *L 0.00276 *D SDFFRHQX1
*I *606:Y O *C 42.195 36.105 *L 0 *D OAI22X1

*CAP
1 *326:1 4.67159e-05
2 *326:2 4.67159e-05
3 *326:3 6.89432e-05
4 *326:4 6.89432e-05
5 *326:5 0.000280296
6 *326:6 0.000280296
7 *326:7 6.89432e-05
8 *326:8 6.89432e-05

*RES
1 *326:9 *606:Y 1.4
2 *326:8 *326:9 1.4
3 *326:7 *326:8 0.372866
4 *326:6 *326:7 1.4
5 *326:5 *326:6 1.49146
6 *326:4 *326:5 1.4
7 *326:3 *326:4 0.372866
8 *326:2 *326:3 1.4
9 *326:1 *326:2 0.248578
10 *599:D *326:1 1.4
*END

*D_NET *327 0.000698478

*CONN
*I *598:D I *C 36.395 28.565 *L 0.00276 *D SDFFRHQX1
*I *605:Y O *C 37.265 32.045 *L 0 *D AO21X1

*CAP
1 *327:2 4.59622e-05
2 *327:3 4.59622e-05
3 *327:4 0.000280296
4 *327:5 0.000280296
5 *327:6 2.29811e-05
6 *327:7 2.29811e-05

*RES
1 *327:8 *605:Y 1.4
2 *327:7 *327:8 1.4
3 *327:6 *327:7 0.124289
4 *327:5 *327:6 1.4
5 *327:4 *327:5 1.49146
6 *327:3 *327:4 1.4
7 *327:2 *327:3 0.248577
8 *327:1 *327:2 1.4
9 *598:D *327:1 1.4
*END

*D_NET *328 0.000813378

*CONN
*I *596:A I *C 53.215 47.415 *L 0.00162 *D NOR2XL
*I *604:Y O *C 51.655 43.86 *L 0 *D AOI21XL

*CAP
1 *328:2 8.85114e-05
2 *328:3 8.85114e-05
3 *328:4 0.000280296
4 *328:5 0.000280296
5 *328:6 2.29811e-05
6 *328:7 2.29811e-05
7 *328:8 6.04086e-06
8 *328:9 1.49008e-05
9 *328:10 8.85992e-06

*RES
1 *328:10 *604:Y 1.4
2 *328:9 *328:10 0.047144
3 *328:8 *328:9 0.0321436
4 *328:7 *328:8 1.4
5 *328:6 *328:7 0.124289
6 *328:5 *328:6 1.4
7 *328:4 *328:5 1.49146
8 *328:3 *328:4 1.4
9 *328:2 *328:3 0.497155
10 *328:1 *328:2 1.4
11 *596:A *328:1 1.4
*END

*D_NET *329 0.000508206

*CONN
*I *593:D I *C 54.375 49.445 *L 0.00276 *D SDFFRHQX1
*I *596:Y O *C 53.795 46.835 *L 0 *D NOR2XL

*CAP
1 *329:2 2.20059e-05
2 *329:3 2.20059e-05
3 *329:4 0.000210091
4 *329:5 0.000210091
5 *329:6 2.20059e-05
6 *329:7 2.20059e-05

*RES
1 *329:8 *596:Y 1.4
2 *329:7 *329:8 1.4
3 *329:6 *329:7 0.124289
4 *329:5 *329:6 1.4
5 *329:4 *329:5 1.11854
6 *329:3 *329:4 1.4
7 *329:2 *329:3 0.124289
8 *329:1 *329:2 1.4
9 *593:D *329:1 1.4
*END

*D_NET *330 0.00163097

*CONN
*I *592:AN I *C 44.515 52.635 *L 0.00178 *D NAND2BX1
*I *590:B I *C 45.385 49.735 *L 0.00171 *D NOR2XL
*I *589:A1 I *C 46.835 52.925 *L 0.00163 *D AOI21XL
*I *597:Y O *C 47.705 48.865 *L 0 *D NAND2BX1

*CAP
1 *330:1 0.000211011
2 *330:2 0.000211011
3 *330:3 6.89432e-05
4 *330:4 0.000183849
5 *330:5 0.000114905
6 *330:6 2.3358e-05
7 *330:7 0.000328327
8 *330:8 2.3358e-05
9 *330:9 0.000234895
10 *330:10 9.34319e-05
11 *330:13 6.89432e-05
12 *330:14 6.89432e-05

*RES
1 *330:15 *597:Y 1.4
2 *330:14 *330:15 1.4
3 *330:13 *330:14 0.372866
4 *330:10 *330:13 1.4
5 *330:9 *589:A1 1.4
6 *330:8 *590:B 1.4
7 *330:7 *330:10 0.497155
8 *330:7 *330:9 1.24287
9 *330:6 *330:8 0.124289
10 *330:5 *330:7 1.4
11 *330:4 *330:6 1.4
12 *330:4 *330:5 0.621444
13 *330:3 *330:4 0.372866
14 *330:2 *330:3 1.4
15 *330:1 *330:2 1.11859
16 *592:AN *330:1 1.4
*END

*D_NET *331 0.00051662

*CONN
*I *594:B0 I *C 49.155 52.635 *L 0.00166 *D AOI21XL
*I *595:Y O *C 49.735 50.025 *L 0 *D NOR2XL

*CAP
1 *331:2 4.72991e-05
2 *331:3 4.72991e-05
3 *331:4 0.000211011
4 *331:5 0.000211011

*RES
1 *331:5 *595:Y 1.4
2 *331:4 *331:5 1.11859
3 *331:3 *331:4 1.4
4 *331:2 *331:3 0.248566
5 *331:1 *331:2 1.4
6 *594:B0 *331:1 1.4
*END

*D_NET *332 0.000220138

*CONN
*I *591:A I *C 49.735 52.635 *L 0.00162 *D NOR2XL
*I *594:Y O *C 48.975 53 *L 0 *D AOI21XL

*CAP
1 *332:2 7.09486e-05
2 *332:3 7.09486e-05
3 *332:4 3.00608e-05
4 *332:5 3.91203e-05
5 *332:6 9.05943e-06

*RES
1 *332:6 *594:Y 1.4
2 *332:5 *332:6 0.0471417
3 *332:4 *332:5 0.156425
4 *332:3 *332:4 1.4
5 *332:2 *332:3 0.372849
6 *332:1 *332:2 1.4
7 *591:A *332:1 1.4
*END

*D_NET *333 0.00203964

*CONN
*I *588:D I *C 57.275 57.855 *L 0.00276 *D SDFFRHQX1
*I *591:Y O *C 50.315 52.055 *L 0 *D NOR2XL

*CAP
1 *333:2 0.000542403
2 *333:3 0.000542403
3 *333:4 0.000477416
4 *333:5 0.000477416

*RES
1 *333:5 *591:Y 1.4
2 *333:4 *333:5 2.48566
3 *333:3 *333:4 1.4
4 *333:2 *333:3 2.98279
5 *333:1 *333:2 1.4
6 *588:D *333:1 1.4
*END

*D_NET *334 0.00109017

*CONN
*I *585:B I *C 41.04 52.005 *L 0.00164 *D MXI2XL
*I *592:Y O *C 43.645 53.215 *L 0 *D NAND2BX1
*I *587:A I *C 41.615 49.445 *L 0.00273 *D CLKINVX1

*CAP
1 *334:1 4.02724e-07
2 *334:2 4.42996e-06
3 *334:3 4.02724e-06
4 *334:4 2.29811e-05
5 *334:5 2.29811e-05
6 *334:6 0.000305495
7 *334:7 9.52728e-05
8 *334:8 0.000210222
9 *334:9 0.000189196
10 *334:10 2.29811e-05
11 *334:11 0.000189196
12 *334:12 2.29811e-05

*RES
1 *334:14 *587:A 1.4
2 *334:13 *592:Y 1.4
3 *334:12 *334:14 1.4
4 *334:11 *334:13 1.4
5 *334:10 *334:12 0.124289
6 *334:9 *334:11 0.994263
7 *334:8 *334:10 1.4
8 *334:7 *334:9 1.4
9 *334:6 *334:8 1.1186
10 *334:6 *334:7 0.497134
11 *334:5 *334:6 1.4
12 *334:4 *334:5 0.124289
13 *334:3 *334:4 1.4
14 *334:2 *334:3 0.0214291
15 *334:1 *334:2 0.00214291
16 *585:B *334:1 1.4
*END

*D_NET *335 0.000705816

*CONN
*I *589:B0 I *C 47.415 52.635 *L 0.00166 *D AOI21XL
*I *590:Y O *C 45.675 50.025 *L 0 *D NOR2XL

*CAP
1 *335:2 0.000141897
2 *335:3 0.000141897
3 *335:4 0.000211011
4 *335:5 0.000211011

*RES
1 *335:5 *590:Y 1.4
2 *335:4 *335:5 1.11859
3 *335:3 *335:4 1.4
4 *335:2 *335:3 0.745698
5 *335:1 *335:2 1.4
6 *589:B0 *335:1 1.4
*END

*D_NET *336 0.000576636

*CONN
*I *586:B I *C 45.675 54.955 *L 0.00171 *D NOR2XL
*I *589:Y O *C 47.235 53 *L 0 *D AOI21XL

*CAP
1 *336:1 2.3884e-05
2 *336:2 2.3884e-05
3 *336:3 0.000118248
4 *336:4 0.000118248
5 *336:5 0.000137127
6 *336:6 0.000146186
7 *336:7 9.05943e-06

*RES
1 *336:7 *589:Y 1.4
2 *336:6 *336:7 0.0471417
3 *336:5 *336:6 0.713554
4 *336:4 *336:5 1.4
5 *336:3 *336:4 0.621415
6 *336:2 *336:3 1.4
7 *336:1 *336:2 0.124283
8 *586:B *336:1 1.4
*END

*D_NET *337 0.000990679

*CONN
*I *585:A I *C 39.875 52.345 *L 0.0017 *D MXI2XL
*I *587:Y O *C 41.2425 49.445 *L 0 *D CLKINVX1
*I *582:A1 I *C 41.325 47.705 *L 0.00163 *D AOI21XL

*CAP
1 *337:1 0.000187127
2 *337:2 0.000187127
3 *337:3 0.000114905
4 *337:4 0.000114905
5 *337:5 4.67159e-05
6 *337:6 0.000193307
7 *337:7 6.44358e-06
8 *337:8 0.000140148

*RES
1 *337:8 *582:A1 1.4
2 *337:7 *587:Y 1.4
3 *337:6 *337:8 0.745732
4 *337:6 *337:7 0.0342866
5 *337:5 *337:6 0.248578
6 *337:4 *337:5 1.4
7 *337:3 *337:4 0.621444
8 *337:2 *337:3 1.4
9 *337:1 *337:2 0.994307
10 *585:A *337:1 1.4
*END

*D_NET *338 0.00047721

*CONN
*I *584:D I *C 45.675 57.855 *L 0.00276 *D SDFFRHQX1
*I *586:Y O *C 45.385 55.245 *L 0 *D NOR2XL

*CAP
1 *338:2 2.36495e-05
2 *338:3 2.36495e-05
3 *338:4 0.000214956
4 *338:5 0.000214956

*RES
1 *338:5 *586:Y 1.4
2 *338:4 *338:5 1.11854
3 *338:3 *338:4 1.4
4 *338:2 *338:3 0.124283
5 *338:1 *338:2 1.4
6 *584:D *338:1 1.4
*END

*D_NET *339 0.000332031

*CONN
*I *583:B I *C 38.715 52.345 *L 0.00171 *D NOR2XL
*I *585:Y O *C 40.165 52.925 *L 0 *D MXI2XL

*CAP
1 *339:2 0.000118248
2 *339:3 0.000118248
3 *339:4 4.77679e-05
4 *339:5 4.77679e-05

*RES
1 *339:5 *585:Y 1.4
2 *339:4 *339:5 0.248565
3 *339:3 *339:4 1.4
4 *339:2 *339:3 0.621415
5 *339:1 *339:2 1.4
6 *583:B *339:1 1.4
*END

*D_NET *340 0.000996974

*CONN
*I *580:D I *C 34.945 54.665 *L 0.00276 *D SDFFRHQX1
*I *583:Y O *C 38.425 52.055 *L 0 *D NOR2XL

*CAP
1 *340:1 2.3884e-05
2 *340:2 2.3884e-05
3 *340:3 0.000283794
4 *340:4 0.000283794
5 *340:5 0.000190809
6 *340:6 0.000190809

*RES
1 *340:6 *583:Y 1.4
2 *340:5 *340:6 0.994264
3 *340:4 *340:5 1.4
4 *340:3 *340:4 1.4914
5 *340:2 *340:3 1.4
6 *340:1 *340:2 0.124283
7 *580:D *340:1 1.4
*END

*D_NET *341 0.000490931

*CONN
*I *581:B I *C 38.715 47.125 *L 0.00171 *D NOR2XL
*I *582:Y O *C 40.925 47.78 *L 0 *D AOI21XL

*CAP
1 *341:1 2.3358e-05
2 *341:2 2.3358e-05
3 *341:3 0.000183849
4 *341:4 0.000183849
5 *341:5 2.93988e-05
6 *341:6 3.82588e-05
7 *341:7 8.85992e-06

*RES
1 *341:7 *582:Y 1.4
2 *341:6 *341:7 0.047144
3 *341:5 *341:6 0.156432
4 *341:4 *341:5 1.4
5 *341:3 *341:4 0.99431
6 *341:2 *341:3 1.4
7 *341:1 *341:2 0.124289
8 *581:B *341:1 1.4
*END

*D_NET *342 0.000745194

*CONN
*I *579:D I *C 37.555 49.445 *L 0.00276 *D SDFFRHQX1
*I *581:Y O *C 38.425 46.835 *L 0 *D NOR2XL

*CAP
1 *342:1 0.000256938
2 *342:2 0.000256938
3 *342:3 6.89432e-05
4 *342:4 6.89432e-05
5 *342:5 4.67159e-05
6 *342:6 4.67159e-05

*RES
1 *342:6 *581:Y 1.4
2 *342:5 *342:6 0.248578
3 *342:4 *342:5 1.4
4 *342:3 *342:4 0.372866
5 *342:2 *342:3 1.4
6 *342:1 *342:2 1.36718
7 *579:D *342:1 1.4
*END

*D_NET *343 0.000889012

*CONN
*I *575:D I *C 56.405 63.075 *L 0.00276 *D SDFFRHQX1
*I *578:Y O *C 53.215 60.465 *L 0 *D OR2X1

*CAP
1 *343:1 0.000177949
2 *343:2 0.000177949
3 *343:3 0.000244314
4 *343:4 0.000244314
5 *343:5 2.22436e-05
6 *343:6 2.22436e-05

*RES
1 *343:6 *578:Y 1.4
2 *343:5 *343:6 0.124283
3 *343:4 *343:5 1.4
4 *343:3 *343:4 1.36711
5 *343:2 *343:3 1.4
6 *343:1 *343:2 0.994261
7 *575:D *343:1 1.4
*END

*D_NET *344 0.00204528

*CONN
*I *655:S0 I *C 72.065 72.935 *L 0.00371 *D MX2X1
*I *656:S0 I *C 74.965 72.935 *L 0.00371 *D MX2X1
*I *653:S0 I *C 74.965 67.715 *L 0.00371 *D MX2X1
*I *657:Y O *C 75.545 64.815 *L 0 *D NOR4X1
*I *654:S0 I *C 73.515 65.685 *L 0.00371 *D MX2X1

*CAP
1 *344:2 0.000222103
2 *344:3 0.000222103
3 *344:4 0.000400385
4 *344:6 0.000578335
5 *344:8 0.000177949
6 *344:9 0.000155472
7 *344:10 4.44206e-05
8 *344:11 0.000111052
9 *344:12 4.44873e-05
10 *344:13 2.22436e-05
11 *344:14 4.44873e-05
12 *344:15 2.22436e-05

*RES
1 *344:15 *654:S0 1.4
2 *344:14 *657:Y 1.4
3 *344:13 *344:15 0.124283
4 *344:12 *344:14 0.248565
5 *344:11 *344:13 1.4
6 *344:10 *344:12 1.4
7 *344:9 *344:11 0.621415
8 *344:9 *344:10 0.248566
9 *344:8 *344:9 1.4
10 *344:6 *344:8 0.994261
11 *344:6 *653:S0 1.4
12 *344:4 *344:6 2.23709
13 *344:4 *656:S0 1.4
14 *344:3 *344:4 1.4
15 *344:2 *344:3 1.24283
16 *344:1 *344:2 1.4
17 *655:S0 *344:1 1.4
*END

*D_NET *345 0.000755684

*CONN
*I *652:D I *C 71.485 75.545 *L 0.00276 *D SDFFRHQX1
*I *656:Y O *C 72.935 73.225 *L 0 *D MX2X1

*CAP
1 *345:2 0.000155472
2 *345:3 0.000155472
3 *345:4 0.000177949
4 *345:5 0.000177949
5 *345:6 4.44206e-05
6 *345:7 4.44206e-05

*RES
1 *345:8 *656:Y 1.4
2 *345:7 *345:8 1.4
3 *345:6 *345:7 0.248566
4 *345:5 *345:6 1.4
5 *345:4 *345:5 0.994261
6 *345:3 *345:4 1.4
7 *345:2 *345:3 0.869981
8 *345:1 *345:2 1.4
9 *652:D *345:1 1.4
*END

*D_NET *346 0.00135622

*CONN
*I *650:D I *C 72.935 78.735 *L 0.00279 *D SDFFSHQX1
*I *655:Y O *C 70.035 73.225 *L 0 *D MX2X1

*CAP
1 *346:1 2.10083e-05
2 *346:2 2.10083e-05
3 *346:3 0.000170896
4 *346:4 0.000170896
5 *346:5 0.000441784
6 *346:6 0.000441784
7 *346:7 4.44206e-05
8 *346:8 4.44206e-05

*RES
1 *346:9 *655:Y 1.4
2 *346:8 *346:9 1.4
3 *346:7 *346:8 0.248566
4 *346:6 *346:7 1.4
5 *346:5 *346:6 2.48567
6 *346:4 *346:5 1.4
7 *346:3 *346:4 0.994264
8 *346:2 *346:3 1.4
9 *346:1 *346:2 0.124289
10 *650:D *346:1 1.4
*END

*D_NET *347 0.000666976

*CONN
*I *649:D I *C 71.775 68.295 *L 0.00279 *D SDFFSHQX1
*I *654:Y O *C 71.485 65.395 *L 0 *D MX2X1

*CAP
1 *347:2 6.6631e-05
2 *347:3 6.6631e-05
3 *347:4 0.000222436
4 *347:5 0.000222436
5 *347:6 4.44206e-05
6 *347:7 4.44206e-05

*RES
1 *347:8 *654:Y 1.4
2 *347:7 *347:8 1.4
3 *347:6 *347:7 0.248566
4 *347:5 *347:6 1.4
5 *347:4 *347:5 1.24283
6 *347:3 *347:4 1.4
7 *347:2 *347:3 0.372849
8 *347:1 *347:2 1.4
9 *649:D *347:1 1.4
*END

*D_NET *348 0.00048916

*CONN
*I *651:D I *C 76.125 70.325 *L 0.00276 *D SDFFRHQX1
*I *653:Y O *C 76.995 68.005 *L 0 *D MX2X1

*CAP
1 *348:2 2.22103e-05
2 *348:3 2.22103e-05
3 *348:4 0.000177949
4 *348:5 0.000177949
5 *348:6 4.44206e-05
6 *348:7 4.44206e-05

*RES
1 *348:8 *653:Y 1.4
2 *348:7 *348:8 1.4
3 *348:6 *348:7 0.248566
4 *348:5 *348:6 1.4
5 *348:4 *348:5 0.994261
6 *348:3 *348:4 1.4
7 *348:2 *348:3 0.124283
8 *348:1 *348:2 1.4
9 *651:D *348:1 1.4
*END

*D_NET *349 0.00152988

*CONN
*I *660:A0 I *C 39.295 18.125 *L 0.00158 *D AOI21XL
*I *663:B0 I *C 44.805 15.805 *L 0.00273 *D OAI2BB1X1
*I *665:Y O *C 47.125 15.515 *L 0 *D NOR2XL

*CAP
1 *349:1 0.000172193
2 *349:2 0.000172193
3 *349:3 0.000401973
4 *349:4 0.000571225
5 *349:5 0.000169252
6 *349:7 2.15241e-05
7 *349:9 2.15241e-05

*RES
1 *349:9 *665:Y 1.4
2 *349:7 *349:9 0.124288
3 *349:6 *663:B0 1.4
4 *349:5 *349:7 1.4
5 *349:4 *349:6 1.4
6 *349:4 *349:5 0.994307
7 *349:3 *349:4 2.36148
8 *349:2 *349:3 1.4
9 *349:1 *349:2 0.994307
10 *660:A0 *349:1 1.4
*END

*D_NET *350 0.00102213

*CONN
*I *660:A1 I *C 39.875 17.835 *L 0.00163 *D AOI21XL
*I *664:Y O *C 35.525 15.225 *L 0 *D OAI211X1

*CAP
1 *350:1 0.000193717
2 *350:2 0.000193717
3 *350:3 0.000317347
4 *350:4 0.000317347

*RES
1 *350:5 *664:Y 1.4
2 *350:4 *350:5 1.4
3 *350:3 *350:4 1.86433
4 *350:2 *350:3 1.4
5 *350:1 *350:2 1.1186
6 *660:A1 *350:1 1.4
*END

*D_NET *351 0.000587893

*CONN
*I *662:A I *C 41.315 15.8675 *L 0.00163 *D INVXL
*I *661:B0 I *C 42.775 15.805 *L 0.00277 *D AOI21X1
*I *663:Y O *C 43.935 16.095 *L 0 *D OAI2BB1X1

*CAP
1 *351:1 7.4221e-07
2 *351:2 3.8966e-05
3 *351:3 3.82238e-05
4 *351:4 0.000105782
5 *351:5 0.000190408
6 *351:6 8.46259e-05
7 *351:7 4.30482e-05
8 *351:8 2.15241e-05
9 *351:9 4.30482e-05
10 *351:10 2.15241e-05

*RES
1 *351:10 *663:Y 1.4
2 *351:9 *661:B0 1.4
3 *351:8 *351:10 0.124288
4 *351:7 *351:9 0.248577
5 *351:6 *351:8 1.4
6 *351:5 *351:7 1.4
7 *351:5 *351:6 0.497153
8 *351:4 *351:5 0.621442
9 *351:3 *351:4 1.4
10 *351:2 *351:3 0.220719
11 *351:1 *351:2 0.00428581
12 *662:A *351:1 1.4
*END

*D_NET *352 0.000440887

*CONN
*I *660:B0 I *C 40.455 18.125 *L 0.00166 *D AOI21XL
*I *662:Y O *C 40.9525 15.805 *L 0 *D INVXL

*CAP
1 *352:1 0.00010762
2 *352:2 0.00010762
3 *352:3 4.2313e-05
4 *352:4 4.2313e-05
5 *352:5 6.45723e-05
6 *352:6 7.05099e-05
7 *352:7 5.93768e-06

*RES
1 *352:7 *662:Y 1.4
2 *352:6 *352:7 0.0342865
3 *352:5 *352:6 0.372865
4 *352:4 *352:5 1.4
5 *352:3 *352:4 0.248577
6 *352:2 *352:3 1.4
7 *352:1 *352:2 0.621442
8 *660:B0 *352:1 1.4
*END

*D_NET *353 0.00941515

*CONN
*I *659:D I *C 61.335 59.885 *L 0.00276 *D SDFFRHQX1
*I *661:Y O *C 43.355 16.095 *L 0 *D AOI21X1

*CAP
1 *353:1 0.00342604
2 *353:2 0.00342604
3 *353:3 0.00128154
4 *353:4 0.00128154

*RES
1 *353:5 *661:Y 1.4
2 *353:4 *353:5 1.4
3 *353:3 *353:4 7.70588
4 *353:2 *353:3 1.4
5 *353:1 *353:2 18.7667
6 *659:D *353:1 1.4
*END

*D_NET *354 0.0121225

*CONN
*I *658:D I *C 71.195 63.075 *L 0.00276 *D SDFFRHQX1
*I *660:Y O *C 40.275 17.76 *L 0 *D AOI21XL

*CAP
1 *354:2 0.00243623
2 *354:3 0.00243623
3 *354:4 0.00361687
4 *354:5 0.00362503
5 *354:6 8.16431e-06

*RES
1 *354:6 *660:Y 1.4
2 *354:5 *354:6 0.0471439
3 *354:4 *354:5 19.4209
4 *354:3 *354:4 1.4
5 *354:2 *354:3 13.2983
6 *354:1 *354:2 1.4
7 *658:D *354:1 1.4
*END

*D_NET *355 0.00138203

*CONN
*I *670:D I *C 11.745 57.855 *L 0.00276 *D SDFFRHQX1
*I *681:Y O *C 11.0825 49.445 *L 0 *D INVX1

*CAP
1 *355:1 0.000640911
2 *355:2 0.000640911
3 *355:3 4.3824e-05
4 *355:4 4.3824e-05
5 *355:5 6.27836e-06
6 *355:6 6.27836e-06

*RES
1 *355:6 *681:Y 1.4
2 *355:5 *355:6 0.0342866
3 *355:4 *355:5 1.4
4 *355:3 *355:4 0.248566
5 *355:2 *355:3 1.4
6 *355:1 *355:2 3.60426
7 *670:D *355:1 1.4
*END

*D_NET *356 0.00610414

*CONN
*I *671:D I *C 13.485 63.075 *L 0.00276 *D SDFFRHQX1
*I *680:Y O *C 17.7525 28.565 *L 0 *D INVX1

*CAP
1 *356:3 0.00269435
2 *356:4 0.00269435
3 *356:5 0.00032868
4 *356:6 0.00032868
5 *356:7 2.2759e-05
6 *356:8 2.90374e-05
7 *356:9 6.27836e-06

*RES
1 *356:9 *680:Y 1.4
2 *356:8 *356:9 0.0342866
3 *356:7 *356:8 0.124289
4 *356:6 *356:7 1.4
5 *356:5 *356:6 1.86425
6 *356:4 *356:5 1.4
7 *356:3 *356:4 14.9144
8 *356:2 *356:3 1.4
9 *356:1 *356:2 1.4
10 *671:D *356:1 1.4
*END

*D_NET *357 0.00505453

*CONN
*I *672:D I *C 22.475 57.855 *L 0.00276 *D SDFFRHQX1
*I *679:Y O *C 19.3675 28.565 *L 0 *D INVX1

*CAP
1 *357:1 0.0022568
2 *357:2 0.0022568
3 *357:3 0.000241032
4 *357:4 0.000241032
5 *357:5 2.2759e-05
6 *357:6 2.94298e-05
7 *357:7 6.67076e-06

*RES
1 *357:7 *679:Y 1.4
2 *357:6 *357:7 0.0364295
3 *357:5 *357:6 0.124289
4 *357:4 *357:5 1.4
5 *357:3 *357:4 1.36711
6 *357:2 *357:3 1.4
7 *357:1 *357:2 12.4288
8 *672:D *357:1 1.4
*END

*D_NET *358 0.000755924

*CONN
*I *673:D I *C 7.685 52.635 *L 0.00276 *D SDFFRHQX1
*I *678:Y O *C 9.3425 49.445 *L 0 *D INVX1

*CAP
1 *358:2 0.000122803
2 *358:3 0.000122803
3 *358:4 0.00024888
4 *358:5 0.000255159
5 *358:6 6.27836e-06

*RES
1 *358:6 *678:Y 1.4
2 *358:5 *358:6 0.0342866
3 *358:4 *358:5 1.36717
4 *358:3 *358:4 1.4
5 *358:2 *358:3 0.745699
6 *358:1 *358:2 1.4
7 *673:D *358:1 1.4
*END

*D_NET *359 0.0018265

*CONN
*I *669:D I *C 15.515 42.195 *L 0.00276 *D SDFFRHQX1
*I *677:Y O *C 16.5925 31.755 *L 0 *D INVX1

*CAP
1 *359:2 4.3824e-05
2 *359:3 4.3824e-05
3 *359:4 0.000819326
4 *359:5 0.000819326
5 *359:6 4.3824e-05
6 *359:7 4.3824e-05
7 *359:8 6.27836e-06
8 *359:9 6.27836e-06

*RES
1 *359:9 *677:Y 1.4
2 *359:8 *359:9 0.0342866
3 *359:7 *359:8 1.4
4 *359:6 *359:7 0.248566
5 *359:5 *359:6 1.4
6 *359:4 *359:5 4.47439
7 *359:3 *359:4 1.4
8 *359:2 *359:3 0.248566
9 *359:1 *359:2 1.4
10 *669:D *359:1 1.4
*END

*D_NET *360 0.00453974

*CONN
*I *666:D I *C 18.415 54.665 *L 0.00276 *D SDFFRHQX1
*I *676:Y O *C 19.2025 26.535 *L 0 *D INVX1

*CAP
1 *360:2 2.04672e-05
2 *360:3 2.04672e-05
3 *360:4 0.0021993
4 *360:5 0.0021993
5 *360:6 4.3824e-05
6 *360:7 4.3824e-05
7 *360:8 6.27836e-06
8 *360:9 6.27836e-06

*RES
1 *360:9 *676:Y 1.4
2 *360:8 *360:9 0.0342866
3 *360:7 *360:8 1.4
4 *360:6 *360:7 0.248566
5 *360:5 *360:6 1.4
6 *360:4 *360:5 12.056
7 *360:3 *360:4 1.4
8 *360:2 *360:3 0.124283
9 *360:1 *360:2 1.4
10 *666:D *360:1 1.4
*END

*D_NET *361 0.0029526

*CONN
*I *667:D I *C 16.095 49.445 *L 0.00276 *D SDFFRHQX1
*I *675:Y O *C 19.2025 33.785 *L 0 *D INVX1

*CAP
1 *361:2 0.000241032
2 *361:3 0.000241032
3 *361:4 0.00122899
4 *361:5 0.00123527
5 *361:6 6.27836e-06

*RES
1 *361:6 *675:Y 1.4
2 *361:5 *361:6 0.0342866
3 *361:4 *361:5 6.71159
4 *361:3 *361:4 1.4
5 *361:2 *361:3 1.36711
6 *361:1 *361:2 1.4
7 *667:D *361:1 1.4
*END

*D_NET *362 0.00339498

*CONN
*I *668:D I *C 24.215 52.635 *L 0.00276 *D SDFFRHQX1
*I *674:Y O *C 24.7125 33.785 *L 0 *D INVX1

*CAP
1 *362:2 8.18689e-05
2 *362:3 8.18689e-05
3 *362:4 0.00147787
4 *362:5 0.00147787
5 *362:6 0.000131472
6 *362:7 0.000131472
7 *362:8 6.27836e-06
8 *362:9 6.27836e-06

*RES
1 *362:9 *674:Y 1.4
2 *362:8 *362:9 0.0342866
3 *362:7 *362:8 1.4
4 *362:6 *362:7 0.745698
5 *362:5 *362:6 1.4
6 *362:4 *362:5 8.07876
7 *362:3 *362:4 1.4
8 *362:2 *362:3 0.497132
9 *362:1 *362:2 1.4
10 *668:D *362:1 1.4
*END

*D_NET *363 0.000844084

*CONN
*I *720:B0 I *C 77.865 31.755 *L 0.0028 *D OAI21X1
*I *770:Y O *C 79.895 27.985 *L 0 *D NAND2BX1

*CAP
1 *363:1 4.66869e-05
2 *363:2 4.66869e-05
3 *363:3 0.000144645
4 *363:4 0.000144645
5 *363:5 0.00023071
6 *363:6 0.00023071

*RES
1 *363:6 *770:Y 1.4
2 *363:5 *363:6 1.36711
3 *363:4 *363:5 1.4
4 *363:3 *363:4 0.870019
5 *363:2 *363:3 1.4
6 *363:1 *363:2 0.248565
7 *720:B0 *363:1 1.4
*END

*D_NET *364 0.000886423

*CONN
*I *722:B1 I *C 74.675 28.565 *L 0.00284 *D AOI32X1
*I *769:Y O *C 78.735 26.825 *L 0 *D AO21X1

*CAP
1 *364:1 0.000116717
2 *364:2 0.000116717
3 *364:3 0.000305521
4 *364:4 0.000305521
5 *364:5 2.09736e-05
6 *364:6 2.09736e-05

*RES
1 *364:6 *769:Y 1.4
2 *364:5 *364:6 0.124283
3 *364:4 *364:5 1.4
4 *364:3 *364:4 1.74004
5 *364:2 *364:3 1.4
6 *364:1 *364:2 0.621413
7 *722:B1 *364:1 1.4
*END

*D_NET *365 0.003655

*CONN
*I *738:A I *C 81.355 26.3075 *L 0.00163 *D INVXL
*I *770:B I *C 79.895 28.565 *L 0.00284 *D NAND2BX1
*I *769:A1 I *C 79.895 26.825 *L 0.00163 *D AO21X1
*I *712:B1 I *C 78.155 28.565 *L 0.00274 *D OAI221X1
*I *768:Y O *C 77.865 39.295 *L 0 *D NOR2BX2
*I *722:A2 I *C 75.545 28.275 *L 0.00279 *D AOI32X1

*CAP
1 *365:1 7.23229e-07
2 *365:2 5.42422e-06
3 *365:3 4.70099e-06
4 *365:4 6.08925e-05
5 *365:5 6.08925e-05
6 *365:6 0.00023071
7 *365:7 0.00023071
8 *365:8 4.0595e-05
9 *365:9 0.000163234
10 *365:10 6.29209e-05
11 *365:11 0.000122639
12 *365:12 0.000188763
13 *365:13 7.00303e-05
14 *365:15 0.000125842
15 *365:16 9.33737e-05
16 *365:19 2.33434e-05
17 *365:20 2.20059e-05
18 *365:21 0.000198054
19 *365:22 0.00088705
20 *365:23 0.000176048
21 *365:24 0.00088705

*RES
1 *365:25 *722:A2 1.4
2 *365:24 *768:Y 1.4
3 *365:23 *365:25 1.4
4 *365:22 *365:24 4.72274
5 *365:21 *365:23 0.99431
6 *365:21 *365:22 1.4
7 *365:20 *365:21 0.124289
8 *365:19 *365:20 1.4
9 *365:16 *365:19 0.124283
10 *365:16 *712:B1 1.4
11 *365:15 *769:A1 1.4
12 *365:13 *365:16 0.372848
13 *365:12 *365:15 0.745698
14 *365:12 *770:B 1.4
15 *365:11 *365:13 1.4
16 *365:10 *365:12 0.372849
17 *365:9 *365:11 0.74573
18 *365:9 *365:10 1.4
19 *365:8 *365:9 0.248577
20 *365:7 *365:8 1.4
21 *365:6 *365:7 1.36711
22 *365:5 *365:6 1.4
23 *365:4 *365:5 0.372865
24 *365:3 *365:4 1.4
25 *365:2 *365:3 0.0278566
26 *365:1 *365:2 0.00428562
27 *738:A *365:1 1.4
*END

*D_NET *366 0.000266657

*CONN
*I *729:B0 I *C 69.165 52.345 *L 0.00277 *D AOI21X1
*I *767:Y O *C 70.325 52.925 *L 0 *D NOR3BX1

*CAP
1 *366:1 4.44873e-05
2 *366:2 4.44873e-05
3 *366:3 8.88413e-05
4 *366:4 8.88413e-05

*RES
1 *366:5 *767:Y 1.4
2 *366:4 *366:5 1.4
3 *366:3 *366:4 0.497132
4 *366:2 *366:3 1.4
5 *366:1 *366:2 0.248565
6 *729:B0 *366:1 1.4
*END

*D_NET *367 0.00286784

*CONN
*I *709:A1N I *C 73.805 34.075 *L 0.0017 *D OAI2BB1X1
*I *706:A1 I *C 70.905 34.075 *L 0.00271 *D OAI32X1
*I *766:Y O *C 73.515 49.155 *L 0 *D CLKXOR2X1

*CAP
1 *367:2 2.20059e-05
2 *367:3 0.000220059
3 *367:4 0.00121386
4 *367:5 0.000198054
5 *367:6 0.00121386

*RES
1 *367:10 *766:Y 1.4
2 *367:8 *367:10 1.4
3 *367:7 *706:A1 1.4
4 *367:6 *367:8 1.4
5 *367:5 *367:7 1.4
6 *367:4 *367:6 6.4627
7 *367:3 *367:5 1.1186
8 *367:3 *367:4 1.4
9 *367:2 *367:3 0.124289
10 *367:1 *367:2 1.4
11 *709:A1N *367:1 1.4
*END

*D_NET *368 0.000394757

*CONN
*I *694:B0 I *C 65.975 42.195 *L 0.00277 *D AOI31X1
*I *765:Y O *C 68.33 41.965 *L 0 *D NOR2BXL

*CAP
1 *368:2 0.000176048
2 *368:3 0.000176048
3 *368:4 1.85138e-05
4 *368:5 2.13311e-05
5 *368:6 2.81731e-06

*RES
1 *368:6 *765:Y 1.4
2 *368:5 *368:6 0.0149996
3 *368:4 *368:5 0.098569
4 *368:3 *368:4 1.4
5 *368:2 *368:3 0.99431
6 *368:1 *368:2 1.4
7 *694:B0 *368:1 1.4
*END

*D_NET *369 0.000702222

*CONN
*I *697:B0 I *C 74.095 31.755 *L 0.00278 *D AOI211X1
*I *764:Y O *C 72.61 28.795 *L 0 *D NOR2BXL

*CAP
1 *369:2 4.40119e-05
2 *369:3 4.40119e-05
3 *369:4 0.000233434
4 *369:5 0.000233434
5 *369:6 6.60178e-05
6 *369:7 6.60178e-05
7 *369:8 4.82968e-06
8 *369:9 7.64699e-06
9 *369:10 2.81731e-06

*RES
1 *369:10 *764:Y 1.4
2 *369:9 *369:10 0.0149996
3 *369:8 *369:9 0.0257137
4 *369:7 *369:8 1.4
5 *369:6 *369:7 0.372866
6 *369:5 *369:6 1.4
7 *369:4 *369:5 1.24283
8 *369:3 *369:4 1.4
9 *369:2 *369:3 0.248578
10 *369:1 *369:2 1.4
11 *697:B0 *369:1 1.4
*END

*D_NET *370 0.000521085

*CONN
*I *735:A I *C 65.975 47.125 *L 0.00157 *D NAND2XL
*I *763:Y O *C 66.4725 49.735 *L 0 *D INVXL

*CAP
1 *370:2 2.20059e-05
2 *370:3 2.20059e-05
3 *370:4 0.000210091
4 *370:5 0.000210091
5 *370:6 2.20059e-05
6 *370:7 2.20059e-05
7 *370:8 6.43957e-06
8 *370:9 6.43957e-06

*RES
1 *370:9 *763:Y 1.4
2 *370:8 *370:9 0.0342849
3 *370:7 *370:8 1.4
4 *370:6 *370:7 0.124289
5 *370:5 *370:6 1.4
6 *370:4 *370:5 1.11854
7 *370:3 *370:4 1.4
8 *370:2 *370:3 0.124289
9 *370:1 *370:2 1.4
10 *735:A *370:1 1.4
*END

*D_NET *371 0.000723224

*CONN
*I *765:B I *C 68.585 42.195 *L 0.00175 *D NOR2BXL
*I *762:Y O *C 71.2775 42.195 *L 0 *D CLKINVX1
*I *699:A I *C 72.645 42.195 *L 0.00162 *D NOR2XL

*CAP
1 *371:1 2.33434e-05
2 *371:2 2.33434e-05
3 *371:3 0.000198054
4 *371:4 0.000198054
5 *371:5 2.33434e-05
6 *371:6 3.01855e-05
7 *371:7 6.84204e-06
8 *371:8 0.00011003
9 *371:10 0.00011003

*RES
1 *371:11 *699:A 1.4
2 *371:10 *371:11 1.4
3 *371:8 *371:10 0.621444
4 *371:7 *762:Y 1.4
5 *371:6 *371:8 1.4
6 *371:6 *371:7 0.0364277
7 *371:5 *371:6 0.124283
8 *371:4 *371:5 1.4
9 *371:3 *371:4 1.1186
10 *371:2 *371:3 1.4
11 *371:1 *371:2 0.124283
12 *765:B *371:1 1.4
*END

*D_NET *372 0.00189348

*CONN
*I *773:AN I *C 68.875 39.295 *L 0.00174 *D NOR3BXL
*I *696:A0 I *C 65.395 39.005 *L 0.00265 *D AOI21X1
*I *761:Y O *C 62.9925 42.195 *L 0 *D CLKINVX1

*CAP
1 *372:1 2.33434e-05
2 *372:2 2.33434e-05
3 *372:3 0.000264071
4 *372:4 0.000550149
5 *372:6 0.000286077
6 *372:8 0.000256778
7 *372:9 0.000256778
8 *372:10 0.00011003
9 *372:11 0.00011003
10 *372:12 6.43957e-06
11 *372:13 6.43957e-06

*RES
1 *372:13 *761:Y 1.4
2 *372:12 *372:13 0.0342849
3 *372:11 *372:12 1.4
4 *372:10 *372:11 0.621444
5 *372:9 *372:10 1.4
6 *372:8 *372:9 1.36711
7 *372:6 *372:8 1.4
8 *372:5 *696:A0 1.4
9 *372:4 *372:6 1.61575
10 *372:4 *372:5 1.4
11 *372:3 *372:4 1.49146
12 *372:2 *372:3 1.4
13 *372:1 *372:2 0.124283
14 *773:AN *372:1 1.4
*END

*D_NET *373 0.000431191

*CONN
*I *685:A0 I *C 57.855 36.975 *L 0.00271 *D OAI21X1
*I *760:Y O *C 57.6475 39.295 *L 0 *D INVXL

*CAP
1 *373:2 2.20059e-05
2 *373:3 2.20059e-05
3 *373:4 0.000186747
4 *373:5 0.00019359
5 *373:6 6.84204e-06

*RES
1 *373:6 *760:Y 1.4
2 *373:5 *373:6 0.0364277
3 *373:4 *373:5 0.994261
4 *373:3 *373:4 1.4
5 *373:2 *373:3 0.124289
6 *373:1 *373:2 1.4
7 *685:A0 *373:1 1.4
*END

*D_NET *374 0.000594777

*CONN
*I *744:A I *C 80.185 47.415 *L 0.004 *D CLKAND2X3
*I *759:Y O *C 79.2325 44.225 *L 0 *D INVX1

*CAP
1 *374:2 4.0595e-05
2 *374:3 4.0595e-05
3 *374:4 0.00023071
4 *374:5 0.00023071
5 *374:6 2.02975e-05
6 *374:7 2.02975e-05
7 *374:8 5.78583e-06
8 *374:9 5.78583e-06

*RES
1 *374:9 *759:Y 1.4
2 *374:8 *374:9 0.034285
3 *374:7 *374:8 1.4
4 *374:6 *374:7 0.124288
5 *374:5 *374:6 1.4
6 *374:4 *374:5 1.36711
7 *374:3 *374:4 1.4
8 *374:2 *374:3 0.248577
9 *374:1 *374:2 1.4
10 *744:A *374:1 1.4
*END

*D_NET *375 0.00087796

*CONN
*I *703:A0 I *C 64.815 49.445 *L 0.00271 *D OAI21X1
*I *758:Y O *C 66.7625 52.345 *L 0 *D INVXL

*CAP
1 *375:1 0.000255128
2 *375:2 0.000255128
3 *375:3 0.000155472
4 *375:4 0.000155472
5 *375:5 2.22436e-05
6 *375:6 2.83798e-05
7 *375:7 6.13618e-06

*RES
1 *375:7 *758:Y 1.4
2 *375:6 *375:7 0.0342849
3 *375:5 *375:6 0.124283
4 *375:4 *375:5 1.4
5 *375:3 *375:4 0.869981
6 *375:2 *375:3 1.4
7 *375:1 *375:2 1.36711
8 *703:A0 *375:1 1.4
*END

*D_NET *376 0.00234052

*CONN
*I *772:B I *C 75.545 39.295 *L 0.00349 *D XNOR2XL
*I *736:A0N I *C 78.155 41.905 *L 0.00172 *D AOI2BB1X1
*I *757:Y O *C 79.2325 49.445 *L 0 *D CLKINVX1
*I *716:B I *C 77.575 49.735 *L 0.00273 *D NOR4X1

*CAP
1 *376:1 4.66869e-05
2 *376:2 4.66869e-05
3 *376:3 0.000198054
4 *376:4 0.000198054
5 *376:5 0.000163404
6 *376:6 0.000770333
7 *376:7 0.000630273
8 *376:9 8.20442e-05
9 *376:10 2.33434e-05
10 *376:11 8.20442e-05
11 *376:12 4.40119e-05
12 *376:13 5.78583e-06
13 *376:14 4.40119e-05
14 *376:15 5.78583e-06

*RES
1 *376:16 *716:B 1.4
2 *376:15 *757:Y 1.4
3 *376:14 *376:16 1.4
4 *376:13 *376:15 0.034285
5 *376:12 *376:14 0.248578
6 *376:11 *376:13 1.4
7 *376:10 *376:12 1.4
8 *376:9 *376:11 0.497153
9 *376:7 *376:10 0.124283
10 *376:7 *376:9 1.4
11 *376:6 *736:A0N 1.4
12 *376:6 *376:7 3.23135
13 *376:5 *376:6 0.869979
14 *376:4 *376:5 1.4
15 *376:3 *376:4 1.1186
16 *376:2 *376:3 1.4
17 *376:1 *376:2 0.248565
18 *772:B *376:1 1.4
*END

*D_NET *377 0.00134385

*CONN
*I *726:A1 I *C 87.145 31.755 *L 0.00269 *D AOI31X1
*I *725:A1 I *C 87.145 28.855 *L 0.00267 *D OAI31X1
*I *756:Y O *C 85.7775 26.535 *L 0 *D CLKINVX1
*I *742:B I *C 83.96 25.905 *L 0.00164 *D MXI2XL

*CAP
1 *377:1 0.000209736
2 *377:2 0.000398499
3 *377:4 0.000188763
4 *377:5 0.000101487
5 *377:6 0.000223272
6 *377:7 2.09736e-05
7 *377:8 0.000121785
8 *377:9 2.71211e-05
9 *377:10 2.27208e-05
10 *377:11 6.14745e-06
11 *377:12 2.30345e-05
12 *377:14 3.13691e-07

*RES
1 *377:14 *742:B 1.4
2 *377:12 *377:14 0.00214282
3 *377:11 *756:Y 1.4
4 *377:10 *377:12 0.145711
5 *377:9 *377:11 0.0364278
6 *377:8 *377:10 1.4
7 *377:7 *377:9 0.124283
8 *377:6 *377:8 0.74573
9 *377:6 *377:7 1.4
10 *377:5 *377:6 0.621442
11 *377:4 *377:5 1.4
12 *377:2 *377:4 1.11855
13 *377:2 *725:A1 1.4
14 *377:1 *377:2 1.24283
15 *726:A1 *377:1 1.4
*END

*D_NET *378 0.000192407

*CONN
*I *684:A0 I *C 59.885 39.005 *L 0.00271 *D OAI21X1
*I *755:Y O *C 59.0975 39.295 *L 0 *D INVXL

*CAP
1 *378:2 6.60178e-05
2 *378:3 6.60178e-05
3 *378:4 2.33434e-05
4 *378:5 3.01855e-05
5 *378:6 6.84204e-06

*RES
1 *378:6 *755:Y 1.4
2 *378:5 *378:6 0.0364277
3 *378:4 *378:5 0.124283
4 *378:3 *378:4 1.4
5 *378:2 *378:3 0.372866
6 *378:1 *378:2 1.4
7 *684:A0 *378:1 1.4
*END

*D_NET *379 0.00263682

*CONN
*I *730:C I *C 75.545 54.665 *L 0.00168 *D NAND3XL
*I *739:B I *C 74.385 49.735 *L 0.00167 *D NAND2XL
*I *715:D I *C 72.935 54.665 *L 0.00166 *D NAND4XL
*I *750:Y O *C 76.125 47.705 *L 0 *D CLKINVX2
*I *743:B I *C 74.095 44.225 *L 0.00284 *D NAND2BX1

*CAP
1 *379:1 6.67309e-05
2 *379:2 6.67309e-05
3 *379:3 8.88413e-05
4 *379:4 8.88413e-05
5 *379:5 6.67309e-05
6 *379:6 0.000454221
7 *379:7 0.000111052
8 *379:8 0.000550894
9 *379:9 0.000111052
10 *379:11 0.000163404
11 *379:13 0.000154042
12 *379:15 0.000132036
13 *379:16 2.20059e-05
14 *379:18 0.000280121
15 *379:20 0.000280121

*RES
1 *379:20 *743:B 1.4
2 *379:18 *379:20 1.49139
3 *379:17 *750:Y 1.4
4 *379:16 *379:18 1.4
5 *379:15 *379:17 1.4
6 *379:13 *379:16 0.124289
7 *379:13 *379:15 0.745732
8 *379:12 *715:D 1.4
9 *379:11 *379:13 1.4
10 *379:9 *379:12 1.4
11 *379:8 *379:11 0.869979
12 *379:8 *739:B 1.4
13 *379:7 *379:9 0.621415
14 *379:6 *379:8 2.11281
15 *379:6 *379:7 1.4
16 *379:5 *379:6 0.372848
17 *379:4 *379:5 1.4
18 *379:3 *379:4 0.497132
19 *379:2 *379:3 1.4
20 *379:1 *379:2 0.372848
21 *730:C *379:1 1.4
*END

*D_NET *380 0.00277512

*CONN
*I *734:C I *C 76.995 44.515 *L 0.00278 *D NOR3X1
*I *750:A I *C 76.705 47.415 *L 0.00521 *D CLKINVX2
*I *716:D I *C 76.705 49.735 *L 0.00283 *D NOR4X1
*I *768:AN I *C 79.605 39.585 *L 0.00173 *D NOR2BX2
*I *772:A I *C 76.995 39.2475 *L 0.00178 *D XNOR2XL
*I *754:Y O *C 81.925 41.615 *L 0 *D NAND2X4

*CAP
1 *380:2 2.20059e-05
2 *380:3 2.20059e-05
3 *380:4 0.000630273
4 *380:5 0.000420182
5 *380:6 0.000396838
6 *380:7 0.000186747
7 *380:9 2.20059e-05
8 *380:11 0.000212371
9 *380:12 0.000291853
10 *380:13 2.69657e-05
11 *380:14 0.000101487
12 *380:16 2.69657e-05
13 *380:17 0.000146815
14 *380:20 0.000146815
15 *380:21 6.08925e-05
16 *380:22 6.08925e-05

*RES
1 *380:23 *754:Y 1.4
2 *380:22 *380:23 1.4
3 *380:21 *380:22 0.372865
4 *380:20 *380:21 1.4
5 *380:17 *380:20 0.869982
6 *380:16 *772:A 1.4
7 *380:15 *768:AN 1.4
8 *380:14 *380:17 1.4
9 *380:13 *380:16 0.143568
10 *380:12 *380:15 1.4
11 *380:12 *380:14 0.621442
12 *380:11 *380:13 1.4
13 *380:11 *380:12 1.1186
14 *380:9 *380:11 0.124289
15 *380:7 *716:D 1.4
16 *380:6 *380:9 1.4
17 *380:5 *750:A 1.4
18 *380:5 *380:7 0.994261
19 *380:4 *380:6 2.11281
20 *380:4 *380:5 1.24283
21 *380:3 *380:4 1.4
22 *380:2 *380:3 0.124289
23 *380:1 *380:2 1.4
24 *734:C *380:1 1.4
*END

*D_NET *381 0.00135586

*CONN
*I *731:A0 I *C 83.955 31.755 *L 0.00271 *D OAI21X1
*I *726:B0 I *C 86.275 31.755 *L 0.00277 *D AOI31X1
*I *753:Y O *C 90.045 29.145 *L 0 *D NOR2XL
*I *725:A2 I *C 86.855 28.565 *L 0.00279 *D OAI31X1

*CAP
1 *381:1 2.09736e-05
2 *381:2 2.09736e-05
3 *381:3 0.00016238
4 *381:4 0.00016238
5 *381:5 0.000188763
6 *381:6 2.09736e-05
7 *381:7 0.000167789
8 *381:9 4.0595e-05
9 *381:10 0.000263867
10 *381:11 0.000223272
11 *381:12 4.19473e-05
12 *381:14 4.19473e-05

*RES
1 *381:14 *725:A2 1.4
2 *381:13 *753:Y 1.4
3 *381:12 *381:14 0.248566
4 *381:11 *381:13 1.4
5 *381:10 *381:12 1.4
6 *381:10 *381:11 1.36717
7 *381:9 *381:10 0.248577
8 *381:7 *381:9 1.4
9 *381:6 *726:B0 1.4
10 *381:5 *381:7 0.994265
11 *381:5 *381:6 0.124283
12 *381:4 *381:5 1.4
13 *381:3 *381:4 0.994307
14 *381:2 *381:3 1.4
15 *381:1 *381:2 0.124283
16 *731:A0 *381:1 1.4
*END

*D_NET *382 0.00116301

*CONN
*I *749:A I *C 84.815 28.7925 *L 0.00163 *D INVXL
*I *726:A2 I *C 86.565 31.755 *L 0.00276 *D AOI31X1
*I *725:B0 I *C 86.565 28.565 *L 0.00282 *D OAI31X1
*I *752:Y O *C 89.465 32.045 *L 0 *D NAND2XL

*CAP
1 *382:1 7.23229e-07
2 *382:2 5.0626e-06
3 *382:3 4.33937e-06
4 *382:4 0.000121785
5 *382:5 0.000121785
6 *382:6 0.00023071
7 *382:7 0.000209736
8 *382:8 2.09736e-05
9 *382:9 0.000202975
10 *382:12 0.000202975
11 *382:13 2.09736e-05
12 *382:14 2.09736e-05

*RES
1 *382:14 *752:Y 1.4
2 *382:13 *382:14 0.124283
3 *382:12 *382:13 1.4
4 *382:9 *382:12 1.24288
5 *382:8 *725:B0 1.4
6 *382:7 *726:A2 1.4
7 *382:7 *382:9 1.4
8 *382:6 *382:8 0.124283
9 *382:6 *382:7 1.24283
10 *382:5 *382:6 1.4
11 *382:4 *382:5 0.74573
12 *382:3 *382:4 1.4
13 *382:2 *382:3 0.0257137
14 *382:1 *382:2 0.00428562
15 *749:A *382:1 1.4
*END

*D_NET *383 0.000510882

*CONN
*I *731:A1 I *C 83.665 31.465 *L 0.00274 *D OAI21X1
*I *749:Y O *C 84.4525 28.855 *L 0 *D INVXL

*CAP
1 *383:2 2.02975e-05
2 *383:3 2.02975e-05
3 *383:4 0.000188763
4 *383:5 0.000188763
5 *383:6 4.0595e-05
6 *383:7 4.0595e-05
7 *383:8 5.78583e-06
8 *383:9 5.78583e-06

*RES
1 *383:9 *749:Y 1.4
2 *383:8 *383:9 0.034285
3 *383:7 *383:8 1.4
4 *383:6 *383:7 0.248577
5 *383:5 *383:6 1.4
6 *383:4 *383:5 1.11855
7 *383:3 *383:4 1.4
8 *383:2 *383:3 0.124288
9 *383:1 *383:2 1.4
10 *731:A1 *383:1 1.4
*END

*D_NET *384 0.00121536

*CONN
*I *716:C I *C 76.995 49.735 *L 0.00274 *D NOR4X1
*I *748:A I *C 77.865 54.665 *L 0.00273 *D CLKINVX1
*I *751:Y O *C 78.735 55.245 *L 0 *D NAND2X1

*CAP
1 *384:1 2.33434e-05
2 *384:2 2.33434e-05
3 *384:3 6.60178e-05
4 *384:4 6.60178e-05
5 *384:5 0.000410834
6 *384:6 0.000455321
7 *384:7 4.44873e-05
8 *384:9 6.29957e-05
9 *384:10 6.29957e-05

*RES
1 *384:11 *751:Y 1.4
2 *384:10 *384:11 1.4
3 *384:9 *384:10 0.372848
4 *384:7 *384:9 1.4
5 *384:6 *748:A 1.4
6 *384:6 *384:7 0.248565
7 *384:5 *384:6 2.23709
8 *384:4 *384:5 1.4
9 *384:3 *384:4 0.372866
10 *384:2 *384:3 1.4
11 *384:1 *384:2 0.124283
12 *716:C *384:1 1.4
*END

*D_NET *385 0.000900885

*CONN
*I *715:C I *C 72.645 54.665 *L 0.00164 *D NAND4XL
*I *730:B I *C 75.255 54.665 *L 0.00166 *D NAND3XL
*I *748:Y O *C 77.4925 54.665 *L 0 *D CLKINVX1

*CAP
1 *385:1 2.22436e-05
2 *385:2 2.22436e-05
3 *385:3 0.000199893
4 *385:4 0.000377575
5 *385:5 0.000177683
6 *385:6 2.22436e-05
7 *385:7 2.22436e-05
8 *385:8 2.22436e-05
9 *385:9 2.83798e-05
10 *385:11 6.13618e-06

*RES
1 *385:11 *748:Y 1.4
2 *385:9 *385:11 0.0342849
3 *385:8 *730:B 1.4
4 *385:7 *385:9 0.124283
5 *385:6 *385:8 0.124283
6 *385:5 *385:7 1.4
7 *385:4 *385:6 1.4
8 *385:4 *385:5 0.994264
9 *385:3 *385:4 1.11855
10 *385:2 *385:3 1.4
11 *385:1 *385:2 0.124283
12 *715:C *385:1 1.4
*END

*D_NET *386 0.000530439

*CONN
*I *744:B I *C 79.895 47.125 *L 0.00381 *D CLKAND2X3
*I *746:Y O *C 83.085 46.545 *L 0 *D NOR2X2

*CAP
1 *386:1 2.09736e-05
2 *386:2 2.09736e-05
3 *386:3 0.000223272
4 *386:4 0.000223272
5 *386:5 2.09736e-05
6 *386:6 2.09736e-05

*RES
1 *386:6 *746:Y 1.4
2 *386:5 *386:6 0.124283
3 *386:4 *386:5 1.4
4 *386:3 *386:4 1.36717
5 *386:2 *386:3 1.4
6 *386:1 *386:2 0.124283
7 *744:B *386:1 1.4
*END

*D_NET *387 0.00074829

*CONN
*I *736:A1N I *C 78.735 42.195 *L 0.00169 *D AOI2BB1X1
*I *768:B I *C 79.025 39.295 *L 0.00538 *D NOR2BX2
*I *747:Y O *C 80.185 42.775 *L 0 *D NOR2X1

*CAP
1 *387:1 2.09736e-05
2 *387:2 2.09736e-05
3 *387:3 2.02975e-05
4 *387:4 0.000101487
5 *387:5 8.11899e-05
6 *387:6 0.000188763
7 *387:7 6.29209e-05
8 *387:8 0.000188763
9 *387:9 6.29209e-05

*RES
1 *387:9 *747:Y 1.4
2 *387:8 *768:B 1.4
3 *387:7 *387:9 0.372849
4 *387:6 *387:8 1.11855
5 *387:5 *387:7 1.4
6 *387:4 *387:6 1.4
7 *387:4 *387:5 0.497153
8 *387:3 *387:4 0.124288
9 *387:2 *387:3 1.4
10 *387:1 *387:2 0.124283
11 *736:A1N *387:1 1.4
*END

*D_NET *388 0.000904313

*CONN
*I *734:B I *C 76.705 44.225 *L 0.00272 *D NOR3X1
*I *743:AN I *C 74.965 44.225 *L 0.00178 *D NAND2BX1
*I *745:Y O *C 74.385 46.835 *L 0 *D NAND2X1

*CAP
1 *388:2 6.60178e-05
2 *388:3 0.000132036
3 *388:4 0.000210091
4 *388:5 6.60178e-05
5 *388:6 0.000210091
6 *388:8 0.00011003
7 *388:10 0.00011003

*RES
1 *388:11 *745:Y 1.4
2 *388:10 *388:11 1.4
3 *388:8 *388:10 0.621444
4 *388:7 *743:AN 1.4
5 *388:6 *388:8 1.4
6 *388:5 *388:7 1.4
7 *388:4 *388:6 1.11854
8 *388:3 *388:5 0.372866
9 *388:3 *388:4 1.4
10 *388:2 *388:3 0.372866
11 *388:1 *388:2 1.4
12 *734:B *388:1 1.4
*END

*D_NET *389 0.000401457

*CONN
*I *733:A1 I *C 72.065 44.225 *L 0.00278 *D AOI21X1
*I *743:Y O *C 74.095 43.645 *L 0 *D NAND2BX1

*CAP
1 *389:2 0.000154042
2 *389:3 0.000154042
3 *389:4 4.66869e-05
4 *389:5 4.66869e-05

*RES
1 *389:5 *743:Y 1.4
2 *389:4 *389:5 0.248565
3 *389:3 *389:4 1.4
4 *389:2 *389:3 0.870021
5 *389:1 *389:2 1.4
6 *733:A1 *389:1 1.4
*END

*D_NET *390 0.000794294

*CONN
*I *731:B0 I *C 83.085 31.755 *L 0.0028 *D OAI21X1
*I *742:Y O *C 83.085 26.825 *L 0 *D MXI2XL

*CAP
1 *390:2 2.02975e-05
2 *390:3 2.02975e-05
3 *390:4 0.000356552
4 *390:5 0.000356552
5 *390:6 2.02975e-05
6 *390:7 2.02975e-05

*RES
1 *390:8 *742:Y 1.4
2 *390:7 *390:8 1.4
3 *390:6 *390:7 0.124288
4 *390:5 *390:6 1.4
5 *390:4 *390:5 2.11281
6 *390:3 *390:4 1.4
7 *390:2 *390:3 0.124288
8 *390:1 *390:2 1.4
9 *731:B0 *390:1 1.4
*END

*D_NET *391 0.00151864

*CONN
*I *732:A I *C 70.905 47.125 *L 0.0017 *D MXI2XL
*I *767:C I *C 70.615 52.635 *L 0.00291 *D NOR3BX1
*I *740:Y O *C 68.875 47.705 *L 0 *D CLKINVX2
*I *718:C I *C 68.875 49.735 *L 0.00278 *D NOR3X1

*CAP
1 *391:2 2.20059e-05
2 *391:3 2.20059e-05
3 *391:4 4.66869e-05
4 *391:5 0.000441876
5 *391:6 0.000395189
6 *391:7 0.000132036
7 *391:9 0.000132036
8 *391:10 0.000163404
9 *391:11 0.000163404

*RES
1 *391:11 *718:C 1.4
2 *391:10 *740:Y 1.4
3 *391:10 *391:11 0.869979
4 *391:9 *391:10 1.4
5 *391:7 *391:9 0.745732
6 *391:6 *767:C 1.4
7 *391:5 *391:7 1.4
8 *391:5 *391:6 2.11281
9 *391:4 *391:5 0.248565
10 *391:3 *391:4 1.4
11 *391:2 *391:3 0.124289
12 *391:1 *391:2 1.4
13 *732:A *391:1 1.4
*END

*D_NET *392 0.0038564

*CONN
*I *735:B I *C 66.555 47.125 *L 0.00167 *D NAND2XL
*I *737:B I *C 67.715 52.345 *L 0.00167 *D NAND2XL
*I *740:A I *C 68.295 47.415 *L 0.00521 *D CLKINVX2
*I *736:B0 I *C 77.575 41.615 *L 0.00276 *D AOI2BB1X1
*I *732:B I *C 72.07 46.785 *L 0.00164 *D MXI2XL
*I *744:Y O *C 78.735 47.705 *L 0 *D CLKAND2X3

*CAP
1 *392:1 2.33434e-05
2 *392:2 2.33434e-05
3 *392:3 0.00011003
4 *392:4 0.00011003
5 *392:5 0.000419632
6 *392:6 0.000396288
7 *392:7 2.33434e-05
8 *392:8 2.22103e-05
9 *392:9 2.20059e-05
10 *392:10 2.22103e-05
11 *392:11 0.000308083
12 *392:13 0.00070419
13 *392:14 2.33434e-05
14 *392:16 0.000418113
15 *392:17 2.73682e-05
16 *392:18 2.33434e-05
17 *392:19 0.000490212
18 *392:20 2.77706e-05
19 *392:22 4.66869e-05
20 *392:23 0.000443525
21 *392:24 4.02473e-07
22 *392:25 8.54611e-05
23 *392:28 8.54611e-05

*RES
1 *392:29 *744:Y 1.4
2 *392:28 *392:29 1.4
3 *392:25 *392:28 0.497154
4 *392:24 *732:B 1.4
5 *392:23 *736:B0 1.4
6 *392:22 *392:25 1.4
7 *392:20 *392:24 0.0021428
8 *392:19 *392:23 2.36137
9 *392:19 *392:22 0.248565
10 *392:18 *740:A 1.4
11 *392:17 *392:20 0.145711
12 *392:16 *392:19 1.4
13 *392:14 *392:18 0.124283
14 *392:13 *392:17 1.4
15 *392:13 *392:16 2.36149
16 *392:12 *737:B 1.4
17 *392:11 *392:14 1.4
18 *392:11 *392:13 1.61575
19 *392:10 *392:12 1.4
20 *392:9 *392:11 0.124289
21 *392:8 *392:10 0.124283
22 *392:7 *392:9 1.4
23 *392:6 *392:8 1.4
24 *392:5 *392:7 0.124283
25 *392:5 *392:6 2.11281
26 *392:4 *392:5 1.4
27 *392:3 *392:4 0.621444
28 *392:2 *392:3 1.4
29 *392:1 *392:2 0.124283
30 *735:B *392:1 1.4
*END

*D_NET *393 0.000844459

*CONN
*I *737:A I *C 68.295 52.345 *L 0.00157 *D NAND2XL
*I *741:Y O *C 69.455 54.375 *L 0 *D NOR3X1
*I *767:AN I *C 71.775 52.635 *L 0.0018 *D NOR3BX1

*CAP
1 *393:2 8.88413e-05
2 *393:3 8.88413e-05
3 *393:4 2.22436e-05
4 *393:5 0.000155705
5 *393:6 0.000133462
6 *393:7 0.000177683
7 *393:9 0.000177683

*RES
1 *393:10 *767:AN 1.4
2 *393:9 *393:10 1.4
3 *393:7 *393:9 0.994264
4 *393:6 *741:Y 1.4
5 *393:5 *393:7 1.4
6 *393:5 *393:6 0.745696
7 *393:4 *393:5 0.124283
8 *393:3 *393:4 1.4
9 *393:2 *393:3 0.497132
10 *393:1 *393:2 1.4
11 *737:A *393:1 1.4
*END

*D_NET *394 0.000427711

*CONN
*I *721:A1 I *C 82.505 28.275 *L 0.00163 *D AOI21XL
*I *738:Y O *C 81.7175 26.245 *L 0 *D INVXL

*CAP
1 *394:1 0.000125842
2 *394:2 0.000125842
3 *394:3 6.08925e-05
4 *394:4 6.08925e-05
5 *394:5 2.09736e-05
6 *394:6 2.71211e-05
7 *394:7 6.14745e-06

*RES
1 *394:7 *738:Y 1.4
2 *394:6 *394:7 0.0364278
3 *394:5 *394:6 0.124283
4 *394:4 *394:5 1.4
5 *394:3 *394:4 0.372865
6 *394:2 *394:3 1.4
7 *394:1 *394:2 0.745698
8 *721:A1 *394:1 1.4
*END

*D_NET *395 0.00036012

*CONN
*I *766:A I *C 72.935 50.025 *L 0.00183 *D CLKXOR2X1
*I *739:Y O *C 74.385 49.155 *L 0 *D NAND2XL

*CAP
1 *395:2 0.00011003
2 *395:3 0.00011003
3 *395:4 7.00303e-05
4 *395:5 7.00303e-05

*RES
1 *395:5 *739:Y 1.4
2 *395:4 *395:5 0.372848
3 *395:3 *395:4 1.4
4 *395:2 *395:3 0.621444
5 *395:1 *395:2 1.4
6 *766:A *395:1 1.4
*END

*D_NET *396 0.00144337

*CONN
*I *703:B0 I *C 65.685 49.445 *L 0.0028 *D OAI21X1
*I *737:Y O *C 67.715 52.925 *L 0 *D NAND2XL
*I *729:A1 I *C 69.455 52.635 *L 0.00278 *D AOI21X1

*CAP
1 *396:1 0.000299615
2 *396:2 0.000299615
3 *396:3 0.000155472
4 *396:4 0.000155472
5 *396:5 2.22436e-05
6 *396:6 8.95245e-05
7 *396:8 6.72808e-05
8 *396:9 0.000132036
9 *396:10 0.000132036
10 *396:11 4.50372e-05
11 *396:12 4.50372e-05

*RES
1 *396:12 *729:A1 1.4
2 *396:11 *396:12 0.248565
3 *396:10 *396:11 1.4
4 *396:9 *396:10 0.745732
5 *396:8 *396:9 1.4
6 *396:6 *396:8 0.372848
7 *396:6 *737:Y 1.4
8 *396:5 *396:6 0.124283
9 *396:4 *396:5 1.4
10 *396:3 *396:4 0.869981
11 *396:2 *396:3 1.4
12 *396:1 *396:2 1.61567
13 *703:B0 *396:1 1.4
*END

*D_NET *397 0.00295586

*CONN
*I *722:B0 I *C 74.095 28.565 *L 0.00266 *D AOI32X1
*I *736:Y O *C 76.995 42.195 *L 0 *D AOI2BB1X1
*I *712:A1 I *C 77.575 28.855 *L 0.00266 *D OAI221X1

*CAP
1 *397:1 4.66869e-05
2 *397:2 4.66869e-05
3 *397:3 0.000220059
4 *397:4 0.000220059
5 *397:5 9.33737e-05
6 *397:6 0.00114383
7 *397:7 0.00105045
8 *397:8 4.40119e-05
9 *397:10 4.40119e-05
10 *397:11 2.33434e-05
11 *397:12 2.33434e-05

*RES
1 *397:12 *712:A1 1.4
2 *397:11 *397:12 0.124283
3 *397:10 *397:11 1.4
4 *397:8 *397:10 0.248578
5 *397:7 *736:Y 1.4
6 *397:6 *397:8 1.4
7 *397:6 *397:7 5.59272
8 *397:5 *397:6 0.497131
9 *397:4 *397:5 1.4
10 *397:3 *397:4 1.24289
11 *397:2 *397:3 1.4
12 *397:1 *397:2 0.248565
13 *722:B0 *397:1 1.4
*END

*D_NET *398 0.00109374

*CONN
*I *713:A1 I *C 69.455 44.225 *L 0.00278 *D AOI21X1
*I *735:Y O *C 66.555 47.705 *L 0 *D NAND2XL

*CAP
1 *398:1 2.33434e-05
2 *398:2 2.33434e-05
3 *398:3 0.000220059
4 *398:4 0.000220059
5 *398:5 0.000303465
6 *398:6 0.000303465

*RES
1 *398:6 *735:Y 1.4
2 *398:5 *398:6 1.61567
3 *398:4 *398:5 1.4
4 *398:3 *398:4 1.24289
5 *398:2 *398:3 1.4
6 *398:1 *398:2 0.124283
7 *713:A1 *398:1 1.4
*END

*D_NET *399 0.000841576

*CONN
*I *733:B0 I *C 71.775 44.515 *L 0.00277 *D AOI21X1
*I *734:Y O *C 76.705 43.935 *L 0 *D NOR3X1

*CAP
1 *399:1 2.33434e-05
2 *399:2 2.33434e-05
3 *399:3 0.000374101
4 *399:4 0.000374101
5 *399:5 2.33434e-05
6 *399:6 2.33434e-05

*RES
1 *399:6 *734:Y 1.4
2 *399:5 *399:6 0.124283
3 *399:4 *399:5 1.4
4 *399:3 *399:4 2.11291
5 *399:2 *399:3 1.4
6 *399:1 *399:2 0.124283
7 *733:B0 *399:1 1.4
*END

*D_NET *400 0.00388428

*CONN
*I *687:A I *C 64.235 39.005 *L 0.00579 *D NAND3X2
*I *731:Y O *C 82.795 32.045 *L 0 *D OAI21X1

*CAP
1 *400:1 0.000560242
2 *400:2 0.000560242
3 *400:3 0.0013819
4 *400:4 0.0013819

*RES
1 *400:5 *731:Y 1.4
2 *400:4 *400:5 1.4
3 *400:3 *400:4 7.95447
4 *400:2 *400:3 1.4
5 *400:1 *400:2 2.98278
6 *687:A *400:1 1.4
*END

*D_NET *401 0.00226893

*CONN
*I *727:B I *C 71.775 32.045 *L 0.00284 *D NAND2X1
*I *706:B1 I *C 70.035 34.075 *L 0.00282 *D OAI32X1
*I *733:Y O *C 71.195 44.225 *L 0 *D AOI21X1

*CAP
1 *401:2 6.60178e-05
2 *401:3 6.60178e-05
3 *401:4 0.000163404
4 *401:5 0.000980424
5 *401:6 0.00081702
6 *401:7 6.60178e-05
7 *401:8 2.20059e-05
8 *401:9 6.60178e-05
9 *401:10 2.20059e-05

*RES
1 *401:12 *733:Y 1.4
2 *401:11 *706:B1 1.4
3 *401:10 *401:12 1.4
4 *401:9 *401:11 1.4
5 *401:8 *401:10 0.124289
6 *401:7 *401:9 0.372866
7 *401:6 *401:8 1.4
8 *401:5 *401:7 1.4
9 *401:5 *401:6 4.34989
10 *401:4 *401:5 0.869979
11 *401:3 *401:4 1.4
12 *401:2 *401:3 0.372866
13 *401:1 *401:2 1.4
14 *727:B *401:1 1.4
*END

*D_NET *402 0.00338942

*CONN
*I *717:B I *C 69.745 28.565 *L 0.0028 *D NOR2BX1
*I *732:Y O *C 71.195 47.705 *L 0 *D MXI2XL
*I *764:AN I *C 71.775 28.855 *L 0.00174 *D NOR2BXL

*CAP
1 *402:2 0.00011003
2 *402:3 0.00011003
3 *402:4 2.33434e-05
4 *402:5 0.00154067
5 *402:6 0.00151732
6 *402:7 4.40119e-05
7 *402:9 4.40119e-05

*RES
1 *402:10 *764:AN 1.4
2 *402:9 *402:10 1.4
3 *402:7 *402:9 0.248578
4 *402:6 *732:Y 1.4
5 *402:5 *402:7 1.4
6 *402:5 *402:6 8.07837
7 *402:4 *402:5 0.124283
8 *402:3 *402:4 1.4
9 *402:2 *402:3 0.621444
10 *402:1 *402:2 1.4
11 *717:B *402:1 1.4
*END

*D_NET *403 0.000400385

*CONN
*I *714:A1 I *C 75.835 52.635 *L 0.00278 *D AOI21X1
*I *730:Y O *C 75.835 55.245 *L 0 *D NAND3XL

*CAP
1 *403:1 0.000200193
2 *403:2 0.000200193

*RES
1 *403:2 *730:Y 1.4
2 *403:1 *403:2 1.11854
3 *714:A1 *403:1 1.4
*END

*D_NET *404 0.00245505

*CONN
*I *723:B I *C 67.425 39.005 *L 0.0028 *D NOR2X1
*I *729:Y O *C 68.585 52.635 *L 0 *D AOI21X1
*I *765:AN I *C 69.165 41.905 *L 0.00174 *D NOR2BXL

*CAP
1 *404:2 8.80238e-05
2 *404:3 8.80238e-05
3 *404:4 0.000233434
4 *404:5 0.00109549
5 *404:6 0.000862057
6 *404:7 4.40119e-05
7 *404:9 4.40119e-05

*RES
1 *404:10 *765:AN 1.4
2 *404:9 *404:10 1.4
3 *404:7 *404:9 0.248578
4 *404:6 *729:Y 1.4
5 *404:5 *404:7 1.4
6 *404:5 *404:6 4.59846
7 *404:4 *404:5 1.24283
8 *404:3 *404:4 1.4
9 *404:2 *404:3 0.497155
10 *404:1 *404:2 1.4
11 *723:B *404:1 1.4
*END

*D_NET *405 0.00108116

*CONN
*I *771:B0 I *C 80.185 31.755 *L 0.0028 *D OAI21X1
*I *728:Y O *C 78.735 37.265 *L 0 *D NAND2XL

*CAP
1 *405:2 2.02975e-05
2 *405:3 2.02975e-05
3 *405:4 0.000398499
4 *405:5 0.000398499
5 *405:6 0.000121785
6 *405:7 0.000121785

*RES
1 *405:8 *728:Y 1.4
2 *405:7 *405:8 1.4
3 *405:6 *405:7 0.74573
4 *405:5 *405:6 1.4
5 *405:4 *405:5 2.36138
6 *405:3 *405:4 1.4
7 *405:2 *405:3 0.124288
8 *405:1 *405:2 1.4
9 *771:B0 *405:1 1.4
*END

*D_NET *406 0.00164273

*CONN
*I *712:C0 I *C 79.025 28.565 *L 0.00282 *D OAI221X1
*I *726:Y O *C 86.565 32.045 *L 0 *D AOI31X1

*CAP
1 *406:1 0.000272657
2 *406:2 0.000272657
3 *406:3 0.000527735
4 *406:4 0.000527735
5 *406:5 2.09736e-05
6 *406:6 2.09736e-05

*RES
1 *406:6 *726:Y 1.4
2 *406:5 *406:6 0.124283
3 *406:4 *406:5 1.4
4 *406:3 *406:4 3.2315
5 *406:2 *406:3 1.4
6 *406:1 *406:2 1.61568
7 *712:C0 *406:1 1.4
*END

*D_NET *407 0.000488492

*CONN
*I *721:B0 I *C 83.085 28.565 *L 0.00166 *D AOI21XL
*I *725:Y O *C 86.275 28.275 *L 0 *D OAI31X1

*CAP
1 *407:1 2.09736e-05
2 *407:2 2.09736e-05
3 *407:3 0.000223272
4 *407:4 0.000223272

*RES
1 *407:5 *725:Y 1.4
2 *407:4 *407:5 1.4
3 *407:3 *407:4 1.36717
4 *407:2 *407:3 1.4
5 *407:1 *407:2 0.124283
6 *721:B0 *407:1 1.4
*END

*D_NET *408 0.00122042

*CONN
*I *709:B0 I *C 74.675 34.075 *L 0.00273 *D OAI2BB1X1
*I *724:A I *C 72.355 33.785 *L 0.00273 *D INVX1
*I *727:Y O *C 71.775 31.175 *L 0 *D NAND2X1

*CAP
1 *408:1 2.33434e-05
2 *408:2 2.33434e-05
3 *408:3 6.60178e-05
4 *408:4 6.60178e-05
5 *408:5 4.66869e-05
6 *408:6 0.000256778
7 *408:7 0.00011003
8 *408:8 0.000210091
9 *408:9 0.00011003
10 *408:10 0.000154042
11 *408:12 0.000154042

*RES
1 *408:14 *727:Y 1.4
2 *408:12 *408:14 1.4
3 *408:11 *724:A 1.4
4 *408:10 *408:12 0.870021
5 *408:9 *408:11 1.4
6 *408:8 *408:10 1.4
7 *408:7 *408:9 0.621444
8 *408:6 *408:8 1.11854
9 *408:6 *408:7 1.4
10 *408:5 *408:6 0.248565
11 *408:4 *408:5 1.4
12 *408:3 *408:4 0.372866
13 *408:2 *408:3 1.4
14 *408:1 *408:2 0.124283
15 *709:B0 *408:1 1.4
*END

*D_NET *409 0.000372999

*CONN
*I *706:A2 I *C 70.615 34.075 *L 0.00281 *D OAI32X1
*I *724:Y O *C 71.9825 33.785 *L 0 *D INVX1

*CAP
1 *409:1 4.66869e-05
2 *409:2 4.66869e-05
3 *409:3 0.00011003
4 *409:4 0.00011003
5 *409:5 2.33434e-05
6 *409:6 2.9783e-05
7 *409:7 6.43957e-06

*RES
1 *409:7 *724:Y 1.4
2 *409:6 *409:7 0.0342849
3 *409:5 *409:6 0.124283
4 *409:4 *409:5 1.4
5 *409:3 *409:4 0.621444
6 *409:2 *409:3 1.4
7 *409:1 *409:2 0.248565
8 *706:A2 *409:1 1.4
*END

*D_NET *410 0.000554892

*CONN
*I *697:A1 I *C 74.385 31.755 *L 0.00279 *D AOI211X1
*I *722:Y O *C 74.965 28.855 *L 0 *D AOI32X1

*CAP
1 *410:1 0.000186747
2 *410:2 0.000186747
3 *410:3 4.40119e-05
4 *410:4 4.40119e-05
5 *410:5 4.66869e-05
6 *410:6 4.66869e-05

*RES
1 *410:6 *722:Y 1.4
2 *410:5 *410:6 0.248565
3 *410:4 *410:5 1.4
4 *410:3 *410:4 0.248578
5 *410:2 *410:3 1.4
6 *410:1 *410:2 0.994261
7 *697:A1 *410:1 1.4
*END

*D_NET *411 0.000834542

*CONN
*I *771:A1 I *C 80.765 31.465 *L 0.00274 *D OAI21X1
*I *721:Y O *C 82.905 28.2 *L 0 *D AOI21XL

*CAP
1 *411:2 2.02975e-05
2 *411:3 2.02975e-05
3 *411:4 0.000251684
4 *411:5 0.000251684
5 *411:6 0.000121785
6 *411:7 0.000121785
7 *411:8 1.55494e-05
8 *411:9 2.35049e-05
9 *411:10 7.95552e-06

*RES
1 *411:10 *721:Y 1.4
2 *411:9 *411:10 0.0471419
3 *411:8 *411:9 0.0921409
4 *411:7 *411:8 1.4
5 *411:6 *411:7 0.74573
6 *411:5 *411:6 1.4
7 *411:4 *411:5 1.4914
8 *411:3 *411:4 1.4
9 *411:2 *411:3 0.124288
10 *411:1 *411:2 1.4
11 *771:A1 *411:1 1.4
*END

*D_NET *412 0.000454345

*CONN
*I *771:A0 I *C 81.055 31.755 *L 0.00271 *D OAI21X1
*I *720:Y O *C 78.155 32.045 *L 0 *D OAI21X1

*CAP
1 *412:2 0.000203829
2 *412:3 0.000203829
3 *412:4 2.33434e-05
4 *412:5 2.33434e-05

*RES
1 *412:5 *720:Y 1.4
2 *412:4 *412:5 0.124283
3 *412:3 *412:4 1.4
4 *412:2 *412:3 1.24288
5 *412:1 *412:2 1.4
6 *771:A0 *412:1 1.4
*END

*D_NET *413 0.000637566

*CONN
*I *719:A I *C 65.685 36.975 *L 0.00273 *D INVX1
*I *723:Y O *C 67.425 38.425 *L 0 *D NOR2X1
*I *696:B0 I *C 65.975 39.295 *L 0.00277 *D AOI21X1

*CAP
1 *413:1 0.000116717
2 *413:2 0.000116717
3 *413:3 2.20059e-05
4 *413:4 0.000132036
5 *413:5 0.00011003
6 *413:6 7.00303e-05
7 *413:8 7.00303e-05

*RES
1 *413:8 *696:B0 1.4
2 *413:7 *723:Y 1.4
3 *413:6 *413:8 0.372848
4 *413:5 *413:7 1.4
5 *413:4 *413:6 1.4
6 *413:4 *413:5 0.621444
7 *413:3 *413:4 0.124289
8 *413:2 *413:3 1.4
9 *413:1 *413:2 0.621413
10 *719:A *413:1 1.4
*END

*D_NET *414 0.000897255

*CONN
*I *694:A1 I *C 65.105 42.195 *L 0.00269 *D AOI31X1
*I *719:Y O *C 65.3125 36.975 *L 0 *D INVX1

*CAP
1 *414:1 0.000420182
2 *414:2 0.000420182
3 *414:3 2.20059e-05
4 *414:4 2.20059e-05
5 *414:5 6.43957e-06
6 *414:6 6.43957e-06

*RES
1 *414:6 *719:Y 1.4
2 *414:5 *414:6 0.0342849
3 *414:4 *414:5 1.4
4 *414:3 *414:4 0.124289
5 *414:2 *414:3 1.4
6 *414:1 *414:2 2.23709
7 *694:A1 *414:1 1.4
*END

*D_NET *415 0.000689321

*CONN
*I *714:B0 I *C 75.545 52.345 *L 0.00277 *D AOI21X1
*I *716:Y O *C 76.705 49.155 *L 0 *D NOR4X1

*CAP
1 *415:2 4.44206e-05
2 *415:3 4.44206e-05
3 *415:4 0.000256228
4 *415:5 0.000256228
5 *415:6 4.40119e-05
6 *415:7 4.40119e-05

*RES
1 *415:8 *716:Y 1.4
2 *415:7 *415:8 1.4
3 *415:6 *415:7 0.248578
4 *415:5 *415:6 1.4
5 *415:4 *415:5 1.36711
6 *415:3 *415:4 1.4
7 *415:2 *415:3 0.248566
8 *415:1 *415:2 1.4
9 *714:B0 *415:1 1.4
*END

*D_NET *416 0.000400186

*CONN
*I *707:B I *C 72.935 52.635 *L 0.00284 *D NAND2BX1
*I *715:Y O *C 73.225 54.375 *L 0 *D NAND4XL

*CAP
1 *416:2 4.44206e-05
2 *416:3 4.44206e-05
3 *416:4 0.000133462
4 *416:5 0.000133462
5 *416:6 2.22103e-05
6 *416:7 2.22103e-05

*RES
1 *416:8 *715:Y 1.4
2 *416:7 *416:8 1.4
3 *416:6 *416:7 0.124283
4 *416:5 *416:6 1.4
5 *416:4 *416:5 0.745696
6 *416:3 *416:4 1.4
7 *416:2 *416:3 0.248566
8 *416:1 *416:2 1.4
9 *707:B *416:1 1.4
*END

*D_NET *417 0.0015499

*CONN
*I *703:A1 I *C 65.105 49.735 *L 0.00274 *D OAI21X1
*I *718:Y O *C 69.165 49.155 *L 0 *D NOR3X1
*I *713:B0 I *C 69.165 44.515 *L 0.00277 *D AOI21X1

*CAP
1 *417:1 2.33434e-05
2 *417:2 2.33434e-05
3 *417:3 0.000308083
4 *417:4 0.000308083
5 *417:5 7.00303e-05
6 *417:6 0.000443525
7 *417:8 0.000373495

*RES
1 *417:8 *713:B0 1.4
2 *417:6 *417:8 1.98852
3 *417:6 *718:Y 1.4
4 *417:5 *417:6 0.372848
5 *417:4 *417:5 1.4
6 *417:3 *417:4 1.74004
7 *417:2 *417:3 1.4
8 *417:1 *417:2 0.124283
9 *703:A1 *417:1 1.4
*END

*D_NET *418 0.000620451

*CONN
*I *710:B I *C 67.135 28.855 *L 0.00167 *D NAND2XL
*I *711:B I *C 65.685 28.565 *L 0.0028 *D NOR2X1
*I *717:Y O *C 69.465 28.565 *L 0 *D NOR2BX1

*CAP
1 *418:1 2.33434e-05
2 *418:2 2.33434e-05
3 *418:3 0.000286077
4 *418:4 0.000176048
5 *418:5 0.00011003
6 *418:6 8.04946e-07
7 *418:8 8.04946e-07

*RES
1 *418:8 *717:Y 1.4
2 *418:7 *711:B 1.4
3 *418:6 *418:8 0.00428561
4 *418:5 *418:7 1.4
5 *418:4 *418:6 1.4
6 *418:3 *418:5 0.621444
7 *418:3 *418:4 0.99431
8 *418:2 *418:3 1.4
9 *418:1 *418:2 0.124283
10 *710:B *418:1 1.4
*END

*D_NET *419 0.00100322

*CONN
*I *697:A0 I *C 74.73 31.7675 *L 0.00263 *D AOI211X1
*I *712:Y O *C 79.025 29.435 *L 0 *D OAI221X1

*CAP
1 *419:1 4.4272e-06
2 *419:2 2.89781e-05
3 *419:3 2.45509e-05
4 *419:4 0.000305521
5 *419:5 0.000305521
6 *419:6 0.000146815
7 *419:7 0.000146815
8 *419:8 2.02975e-05
9 *419:9 2.02975e-05

*RES
1 *419:10 *712:Y 1.4
2 *419:9 *419:10 1.4
3 *419:8 *419:9 0.124288
4 *419:7 *419:8 1.4
5 *419:6 *419:7 0.869982
6 *419:5 *419:6 1.4
7 *419:4 *419:5 1.74004
8 *419:3 *419:4 1.4
9 *419:2 *419:3 0.130711
10 *419:1 *419:2 0.0235709
11 *697:A0 *419:1 1.4
*END

*D_NET *420 0.00298587

*CONN
*I *701:A1 I *C 73.805 39.295 *L 0.00274 *D OAI21X1
*I *773:C I *C 70.035 39.005 *L 0.00179 *D NOR3BXL
*I *698:A1 I *C 74.965 42.195 *L 0.00278 *D AOI21X1
*I *714:Y O *C 74.965 52.635 *L 0 *D AOI21X1

*CAP
1 *420:1 2.33434e-05
2 *420:2 2.33434e-05
3 *420:3 0.000374101
4 *420:4 8.80238e-05
5 *420:5 0.000286077
6 *420:6 0.000256778
7 *420:8 0.00109549
8 *420:10 0.000838714

*RES
1 *420:10 *714:Y 1.4
2 *420:8 *698:A1 1.4
3 *420:8 *420:10 4.47418
4 *420:7 *773:C 1.4
5 *420:6 *420:8 1.36711
6 *420:5 *420:7 1.4
7 *420:4 *420:6 1.4
8 *420:3 *420:5 1.61575
9 *420:3 *420:4 0.497155
10 *420:2 *420:3 1.4
11 *420:1 *420:2 0.124283
12 *701:A1 *420:1 1.4
*END

*D_NET *421 0.00275841

*CONN
*I *704:B I *C 69.165 31.465 *L 0.00171 *D NOR2XL
*I *708:A I *C 64.815 33.785 *L 0.00273 *D INVX1
*I *713:Y O *C 68.585 44.225 *L 0 *D AOI21X1

*CAP
1 *421:1 0.000186747
2 *421:2 0.000186747
3 *421:3 2.20059e-05
4 *421:4 0.000330089
5 *421:5 0.000840364
6 *421:6 0.000308083
7 *421:7 0.000840364
8 *421:9 2.20059e-05
9 *421:11 2.20059e-05

*RES
1 *421:12 *713:Y 1.4
2 *421:11 *421:12 1.4
3 *421:9 *421:11 0.124289
4 *421:8 *708:A 1.4
5 *421:7 *421:9 1.4
6 *421:6 *421:8 1.4
7 *421:5 *421:7 4.47418
8 *421:4 *421:6 1.74004
9 *421:4 *421:5 1.4
10 *421:3 *421:4 0.124289
11 *421:2 *421:3 1.4
12 *421:1 *421:2 0.994261
13 *704:B *421:1 1.4
*END

*D_NET *422 0.000645591

*CONN
*I *702:A1 I *C 66.555 31.175 *L 0.00166 *D OAI21XL
*I *711:Y O *C 65.685 27.985 *L 0 *D NOR2X1

*CAP
1 *422:2 4.40119e-05
2 *422:3 4.40119e-05
3 *422:4 0.000256778
4 *422:5 0.000256778
5 *422:6 2.20059e-05
6 *422:7 2.20059e-05

*RES
1 *422:8 *711:Y 1.4
2 *422:7 *422:8 1.4
3 *422:6 *422:7 0.124289
4 *422:5 *422:6 1.4
5 *422:4 *422:5 1.36711
6 *422:3 *422:4 1.4
7 *422:2 *422:3 0.248578
8 *422:1 *422:2 1.4
9 *702:A1 *422:1 1.4
*END

*D_NET *423 0.000601579

*CONN
*I *702:B0 I *C 67.135 31.465 *L 0.00169 *D OAI21XL
*I *710:Y O *C 67.135 28.275 *L 0 *D NAND2XL

*CAP
1 *423:2 2.20059e-05
2 *423:3 2.20059e-05
3 *423:4 0.000256778
4 *423:5 0.000256778
5 *423:6 2.20059e-05
6 *423:7 2.20059e-05

*RES
1 *423:8 *710:Y 1.4
2 *423:7 *423:8 1.4
3 *423:6 *423:7 0.124289
4 *423:5 *423:6 1.4
5 *423:4 *423:5 1.36711
6 *423:3 *423:4 1.4
7 *423:2 *423:3 0.124289
8 *423:1 *423:2 1.4
9 *702:B0 *423:1 1.4
*END

*D_NET *424 0.000513556

*CONN
*I *705:A I *C 75.545 36.975 *L 0.00162 *D NOR2XL
*I *709:Y O *C 75.545 33.785 *L 0 *D OAI2BB1X1

*CAP
1 *424:1 0.000256778
2 *424:2 0.000256778

*RES
1 *424:2 *709:Y 1.4
2 *424:1 *424:2 1.36711
3 *705:A *424:1 1.4
*END

*D_NET *425 0.000650445

*CONN
*I *702:A0 I *C 66.265 31.465 *L 0.00164 *D OAI21XL
*I *708:Y O *C 64.4425 33.785 *L 0 *D INVX1

*CAP
1 *425:2 4.40119e-05
2 *425:3 4.40119e-05
3 *425:4 0.000186747
4 *425:5 0.000186747
5 *425:6 8.80238e-05
6 *425:7 8.80238e-05
7 *425:8 6.43957e-06
8 *425:9 6.43957e-06

*RES
1 *425:9 *708:Y 1.4
2 *425:8 *425:9 0.0342849
3 *425:7 *425:8 1.4
4 *425:6 *425:7 0.497155
5 *425:5 *425:6 1.4
6 *425:4 *425:5 0.994261
7 *425:3 *425:4 1.4
8 *425:2 *425:3 0.248578
9 *425:1 *425:2 1.4
10 *702:A0 *425:1 1.4
*END

*D_NET *426 0.000326808

*CONN
*I *695:A0 I *C 70.325 36.975 *L 0.00265 *D AOI21X1
*I *706:Y O *C 70.325 34.945 *L 0 *D OAI32X1

*CAP
1 *426:1 0.000163404
2 *426:2 0.000163404

*RES
1 *426:2 *706:Y 1.4
2 *426:1 *426:2 0.869979
3 *695:A0 *426:1 1.4
*END

*D_NET *427 0.000310758

*CONN
*I *693:A0 I *C 74.385 36.685 *L 0.00264 *D AOI22X1
*I *705:Y O *C 76.125 36.395 *L 0 *D NOR2XL

*CAP
1 *427:1 2.33434e-05
2 *427:2 2.33434e-05
3 *427:3 0.000132036
4 *427:4 0.000132036

*RES
1 *427:5 *705:Y 1.4
2 *427:4 *427:5 1.4
3 *427:3 *427:4 0.745732
4 *427:2 *427:3 1.4
5 *427:1 *427:2 0.124283
6 *693:A0 *427:1 1.4
*END

*D_NET *428 0.00291608

*CONN
*I *693:B0 I *C 73.225 36.975 *L 0.00265 *D AOI22X1
*I *699:B I *C 72.935 41.905 *L 0.00171 *D NOR2XL
*I *707:Y O *C 72.935 53.215 *L 0 *D NAND2BX1

*CAP
1 *428:2 2.20059e-05
2 *428:3 2.20059e-05
3 *428:4 0.000396838
4 *428:5 0.000396838
5 *428:6 6.60178e-05
6 *428:7 2.20059e-05
7 *428:8 4.40119e-05
8 *428:9 0.000906545
9 *428:11 0.000906545
10 *428:13 6.6631e-05
11 *428:14 6.6631e-05

*RES
1 *428:15 *707:Y 1.4
2 *428:14 *428:15 1.4
3 *428:13 *428:14 0.372849
4 *428:11 *428:13 1.4
5 *428:10 *699:B 1.4
6 *428:9 *428:11 4.84702
7 *428:8 *428:10 1.4
8 *428:7 *428:9 1.4
9 *428:6 *428:8 0.248578
10 *428:6 *428:7 0.124289
11 *428:5 *428:6 1.4
12 *428:4 *428:5 2.11281
13 *428:3 *428:4 1.4
14 *428:2 *428:3 0.124289
15 *428:1 *428:2 1.4
16 *693:B0 *428:1 1.4
*END

*D_NET *429 0.000797564

*CONN
*I *697:C0 I *C 73.515 31.755 *L 0.00281 *D AOI211X1
*I *704:Y O *C 68.875 31.175 *L 0 *D NOR2XL

*CAP
1 *429:1 2.33434e-05
2 *429:2 2.33434e-05
3 *429:3 0.000352095
4 *429:4 0.000352095
5 *429:5 2.33434e-05
6 *429:6 2.33434e-05

*RES
1 *429:6 *704:Y 1.4
2 *429:5 *429:6 0.124283
3 *429:4 *429:5 1.4
4 *429:3 *429:4 1.98862
5 *429:2 *429:3 1.4
6 *429:1 *429:2 0.124283
7 *697:C0 *429:1 1.4
*END

*D_NET *430 0.000835014

*CONN
*I *692:A I *C 66.845 36.685 *L 0.00157 *D NAND2XL
*I *702:Y O *C 67.425 32.045 *L 0 *D OAI21XL

*CAP
1 *430:2 4.40119e-05
2 *430:3 4.40119e-05
3 *430:4 0.000373495
4 *430:5 0.000373495

*RES
1 *430:5 *702:Y 1.4
2 *430:4 *430:5 1.98852
3 *430:3 *430:4 1.4
4 *430:2 *430:3 0.248578
5 *430:1 *430:2 1.4
6 *692:A *430:1 1.4
*END

*D_NET *431 0.000456169

*CONN
*I *693:B1 I *C 73.515 36.975 *L 0.00283 *D AOI22X1
*I *701:Y O *C 72.935 38.715 *L 0 *D OAI21X1

*CAP
1 *431:2 2.20059e-05
2 *431:3 2.20059e-05
3 *431:4 0.000140061
4 *431:5 0.000140061
5 *431:6 6.60178e-05
6 *431:7 6.60178e-05

*RES
1 *431:8 *701:Y 1.4
2 *431:7 *431:8 1.4
3 *431:6 *431:7 0.372866
4 *431:5 *431:6 1.4
5 *431:4 *431:5 0.745696
6 *431:3 *431:4 1.4
7 *431:2 *431:3 0.124289
8 *431:1 *431:2 1.4
9 *693:B1 *431:1 1.4
*END

*D_NET *432 0.00167966

*CONN
*I *696:A1 I *C 65.685 39.005 *L 0.00278 *D AOI21X1
*I *703:Y O *C 65.975 49.155 *L 0 *D OAI21X1
*I *700:A I *C 65.985 44.4525 *L 0.00163 *D INVXL

*CAP
1 *432:2 2.20059e-05
2 *432:3 2.20059e-05
3 *432:4 0.000438696
4 *432:5 0.000817825
5 *432:6 0.000378325
6 *432:7 8.04946e-07

*RES
1 *432:7 *700:A 1.4
2 *432:6 *703:Y 1.4
3 *432:5 *432:7 0.00428561
4 *432:5 *432:6 2.01424
5 *432:4 *432:5 2.33566
6 *432:3 *432:4 1.4
7 *432:2 *432:3 0.124289
8 *432:1 *432:2 1.4
9 *696:A1 *432:1 1.4
*END

*D_NET *433 0.000475203

*CONN
*I *694:A2 I *C 65.685 42.195 *L 0.00276 *D AOI31X1
*I *700:Y O *C 66.3475 44.515 *L 0 *D INVXL

*CAP
1 *433:2 4.40119e-05
2 *433:3 4.40119e-05
3 *433:4 0.000186747
4 *433:5 0.00019359
5 *433:6 6.84204e-06

*RES
1 *433:6 *700:Y 1.4
2 *433:5 *433:6 0.0364277
3 *433:4 *433:5 0.994261
4 *433:3 *433:4 1.4
5 *433:2 *433:3 0.248578
6 *433:1 *433:2 1.4
7 *694:A2 *433:1 1.4
*END

*D_NET *434 0.00035477

*CONN
*I *698:B0 I *C 75.255 41.905 *L 0.00277 *D AOI21X1
*I *699:Y O *C 73.225 41.615 *L 0 *D NOR2XL

*CAP
1 *434:1 2.33434e-05
2 *434:2 2.33434e-05
3 *434:3 0.000154042
4 *434:4 0.000154042

*RES
1 *434:5 *699:Y 1.4
2 *434:4 *434:5 1.4
3 *434:3 *434:4 0.870021
4 *434:2 *434:3 1.4
5 *434:1 *434:2 0.124283
6 *698:B0 *434:1 1.4
*END

*D_NET *435 0.00163258

*CONN
*I *695:A1 I *C 70.615 36.975 *L 0.00278 *D AOI21X1
*I *693:A1 I *C 74.095 37.265 *L 0.0028 *D AOI22X1
*I *698:Y O *C 75.835 42.195 *L 0 *D AOI21X1

*CAP
1 *435:1 2.33434e-05
2 *435:2 2.33434e-05
3 *435:3 0.000264071
4 *435:4 0.000396107
5 *435:5 0.000132036
6 *435:7 0.000396838
7 *435:9 0.000396838

*RES
1 *435:9 *698:Y 1.4
2 *435:7 *435:9 2.11281
3 *435:6 *693:A1 1.4
4 *435:5 *435:7 1.4
5 *435:4 *435:6 1.4
6 *435:4 *435:5 0.745732
7 *435:3 *435:4 1.49146
8 *435:2 *435:3 1.4
9 *435:1 *435:2 0.124283
10 *695:A1 *435:1 1.4
*END

*D_NET *436 0.00167124

*CONN
*I *691:A I *C 68.005 36.685 *L 0.00157 *D NAND2XL
*I *697:Y O *C 74.095 32.045 *L 0 *D AOI211X1

*CAP
1 *436:2 0.000462125
2 *436:3 0.000462125
3 *436:4 0.000373495
4 *436:5 0.000373495

*RES
1 *436:5 *697:Y 1.4
2 *436:4 *436:5 1.98852
3 *436:3 *436:4 1.4
4 *436:2 *436:3 2.61006
5 *436:1 *436:2 1.4
6 *691:A *436:1 1.4
*END

*D_NET *437 0.000689603

*CONN
*I *691:B I *C 67.425 36.685 *L 0.00167 *D NAND2XL
*I *696:Y O *C 66.555 39.005 *L 0 *D AOI21X1
*I *692:B I *C 66.265 36.685 *L 0.00167 *D NAND2XL

*CAP
1 *437:1 2.33434e-05
2 *437:2 2.33434e-05
3 *437:3 6.60178e-05
4 *437:4 8.80238e-05
5 *437:5 0.000210091
6 *437:6 2.20059e-05
7 *437:7 0.000210091
8 *437:8 2.33434e-05
9 *437:10 2.33434e-05

*RES
1 *437:10 *692:B 1.4
2 *437:8 *437:10 0.124283
3 *437:7 *696:Y 1.4
4 *437:6 *437:8 1.4
5 *437:5 *437:7 1.11854
6 *437:4 *437:6 0.124289
7 *437:4 *437:5 1.4
8 *437:3 *437:4 0.372866
9 *437:2 *437:3 1.4
10 *437:1 *437:2 0.124283
11 *691:B *437:1 1.4
*END

*D_NET *438 0.000373495

*CONN
*I *690:B I *C 71.485 39.295 *L 0.00534 *D NAND2X2
*I *695:Y O *C 71.485 36.975 *L 0 *D AOI21X1

*CAP
1 *438:1 0.000186747
2 *438:2 0.000186747

*RES
1 *438:2 *695:Y 1.4
2 *438:1 *438:2 0.994261
3 *690:B *438:1 1.4
*END

*D_NET *439 0.00115112

*CONN
*I *688:A I *C 63.945 36.975 *L 0.00264 *D NAND3X1
*I *694:Y O *C 65.685 42.485 *L 0 *D AOI31X1

*CAP
1 *439:3 0.000443525
2 *439:4 0.000443525
3 *439:5 0.000132036
4 *439:6 0.000132036

*RES
1 *439:7 *694:Y 1.4
2 *439:6 *439:7 1.4
3 *439:5 *439:6 0.745732
4 *439:4 *439:5 1.4
5 *439:3 *439:4 2.36137
6 *439:2 *439:3 1.4
7 *439:1 *439:2 1.4
8 *688:A *439:1 1.4
*END

*D_NET *440 0.00072024

*CONN
*I *690:A I *C 72.065 39.005 *L 0.00547 *D NAND2X2
*I *693:Y O *C 73.805 37.265 *L 0 *D AOI22X1

*CAP
1 *440:2 0.000176048
2 *440:3 0.000176048
3 *440:4 0.000140061
4 *440:5 0.000140061
5 *440:6 4.40119e-05
6 *440:7 4.40119e-05

*RES
1 *440:8 *693:Y 1.4
2 *440:7 *440:8 1.4
3 *440:6 *440:7 0.248578
4 *440:5 *440:6 1.4
5 *440:4 *440:5 0.745696
6 *440:3 *440:4 1.4
7 *440:2 *440:3 0.99431
8 *440:1 *440:2 1.4
9 *690:A *440:1 1.4
*END

*D_NET *441 0.000396107

*CONN
*I *688:B I *C 63.655 37.265 *L 0.00285 *D NAND3X1
*I *692:Y O *C 66.265 37.265 *L 0 *D NAND2XL

*CAP
1 *441:2 0.000198054
2 *441:3 0.000198054

*RES
1 *441:4 *692:Y 1.4
2 *441:3 *441:4 1.4
3 *441:2 *441:3 1.1186
4 *441:1 *441:2 1.4
5 *688:B *441:1 1.4
*END

*D_NET *442 0.000662853

*CONN
*I *688:C I *C 63.365 36.975 *L 0.00285 *D NAND3X1
*I *691:Y O *C 67.425 37.265 *L 0 *D NAND2XL

*CAP
1 *442:2 0.000308083
2 *442:3 0.000308083
3 *442:4 2.33434e-05
4 *442:5 2.33434e-05

*RES
1 *442:5 *691:Y 1.4
2 *442:4 *442:5 0.124283
3 *442:3 *442:4 1.4
4 *442:2 *442:3 1.74004
5 *442:1 *442:2 1.4
6 *688:C *442:1 1.4
*END

*D_NET *443 0.00209531

*CONN
*I *689:A I *C 62.495 36.975 *L 0.00273 *D INVX1
*I *690:Y O *C 72.065 39.585 *L 0 *D NAND2X2
*I *687:B I *C 62.785 39.295 *L 0.00562 *D NAND3X2

*CAP
1 *443:2 4.40119e-05
2 *443:3 4.40119e-05
3 *443:4 0.000210091
4 *443:5 0.000210091
5 *443:6 6.60178e-05
6 *443:7 0.000770208
7 *443:8 0.00070419
8 *443:9 2.33434e-05
9 *443:11 2.33434e-05

*RES
1 *443:11 *687:B 1.4
2 *443:10 *690:Y 1.4
3 *443:9 *443:11 0.124283
4 *443:8 *443:10 1.4
5 *443:7 *443:9 1.4
6 *443:7 *443:8 3.97724
7 *443:6 *443:7 0.372866
8 *443:5 *443:6 1.4
9 *443:4 *443:5 1.11854
10 *443:3 *443:4 1.4
11 *443:2 *443:3 0.248578
12 *443:1 *443:2 1.4
13 *689:A *443:1 1.4
*END

*D_NET *444 0.000191602

*CONN
*I *686:A I *C 61.335 36.685 *L 0.00157 *D NAND2XL
*I *689:Y O *C 62.1225 36.975 *L 0 *D INVX1

*CAP
1 *444:2 6.60178e-05
2 *444:3 6.60178e-05
3 *444:4 2.33434e-05
4 *444:5 2.9783e-05
5 *444:6 6.43957e-06

*RES
1 *444:6 *689:Y 1.4
2 *444:5 *444:6 0.0342849
3 *444:4 *444:5 0.124283
4 *444:3 *444:4 1.4
5 *444:2 *444:3 0.372866
6 *444:1 *444:2 1.4
7 *686:A *444:1 1.4
*END

*D_NET *445 0.00145921

*CONN
*I *687:C I *C 63.365 39.295 *L 0.00534 *D NAND3X2
*I *688:Y O *C 63.075 36.395 *L 0 *D NAND3X1
*I *686:B I *C 60.755 36.685 *L 0.00167 *D NAND2XL
*I *684:B0 I *C 60.755 39.005 *L 0.0028 *D OAI21X1

*CAP
1 *445:2 4.40119e-05
2 *445:3 4.40119e-05
3 *445:4 0.000233434
4 *445:5 0.000233434
5 *445:6 6.60178e-05
6 *445:7 0.000242065
7 *445:9 0.000176048
8 *445:11 2.33434e-05
9 *445:12 0.000210091
10 *445:13 0.000186747

*RES
1 *445:13 *684:B0 1.4
2 *445:12 *686:B 1.4
3 *445:12 *445:13 0.994261
4 *445:11 *445:12 0.124283
5 *445:9 *445:11 1.4
6 *445:8 *688:Y 1.4
7 *445:7 *445:9 0.99431
8 *445:7 *445:8 1.4
9 *445:6 *445:7 0.372866
10 *445:5 *445:6 1.4
11 *445:4 *445:5 1.24283
12 *445:3 *445:4 1.4
13 *445:2 *445:3 0.248578
14 *445:1 *445:2 1.4
15 *687:C *445:1 1.4
*END

*D_NET *446 0.00134711

*CONN
*I *685:A1 I *C 58.145 36.685 *L 0.00274 *D OAI21X1
*I *684:A1 I *C 60.175 39.295 *L 0.00274 *D OAI21X1
*I *687:Y O *C 63.945 39.585 *L 0 *D NAND3X2

*CAP
1 *446:1 0.000210091
2 *446:2 0.000210091
3 *446:3 0.000154042
4 *446:4 0.000440119
5 *446:5 0.000286077
6 *446:7 2.33434e-05
7 *446:9 2.33434e-05

*RES
1 *446:9 *687:Y 1.4
2 *446:7 *446:9 0.124283
3 *446:6 *684:A1 1.4
4 *446:5 *446:7 1.4
5 *446:4 *446:6 1.4
6 *446:4 *446:5 1.61575
7 *446:3 *446:4 0.870021
8 *446:2 *446:3 1.4
9 *446:1 *446:2 1.11854
10 *685:A1 *446:1 1.4
*END

*D_NET *447 0.00035477

*CONN
*I *685:B0 I *C 58.725 36.975 *L 0.0028 *D OAI21X1
*I *686:Y O *C 60.755 37.265 *L 0 *D NAND2XL

*CAP
1 *447:2 0.000154042
2 *447:3 0.000154042
3 *447:4 2.33434e-05
4 *447:5 2.33434e-05

*RES
1 *447:5 *686:Y 1.4
2 *447:4 *447:5 0.124283
3 *447:3 *447:4 1.4
4 *447:2 *447:3 0.870021
5 *447:1 *447:2 1.4
6 *685:B0 *447:1 1.4
*END

*D_NET *448 0.000969724

*CONN
*I *682:D I *C 60.175 42.195 *L 0.0017 *D SDFFRXL
*I *685:Y O *C 59.015 37.265 *L 0 *D OAI21X1

*CAP
1 *448:2 4.40119e-05
2 *448:3 4.40119e-05
3 *448:4 0.000396838
4 *448:5 0.000396838
5 *448:6 4.40119e-05
6 *448:7 4.40119e-05

*RES
1 *448:8 *685:Y 1.4
2 *448:7 *448:8 1.4
3 *448:6 *448:7 0.248578
4 *448:5 *448:6 1.4
5 *448:4 *448:5 2.11281
6 *448:3 *448:4 1.4
7 *448:2 *448:3 0.248578
8 *448:1 *448:2 1.4
9 *682:D *448:1 1.4
*END

*D_NET *449 0.00101909

*CONN
*I *683:D I *C 61.915 44.225 *L 0.0017 *D SDFFRXL
*I *684:Y O *C 61.045 38.715 *L 0 *D OAI21X1

*CAP
1 *449:2 6.60178e-05
2 *449:3 6.60178e-05
3 *449:4 0.000443525
4 *449:5 0.000443525

*RES
1 *449:5 *684:Y 1.4
2 *449:4 *449:5 2.36137
3 *449:3 *449:4 1.4
4 *449:2 *449:3 0.372866
5 *449:1 *449:2 1.4
6 *683:D *449:1 1.4
*END

*D_NET *450 0.00160073

*CONN
*I *705:B I *C 75.835 36.685 *L 0.00171 *D NOR2XL
*I *771:Y O *C 79.895 32.045 *L 0 *D OAI21X1

*CAP
1 *450:1 2.33434e-05
2 *450:2 2.33434e-05
3 *450:3 0.000359579
4 *450:4 0.000359579
5 *450:5 0.000356552
6 *450:6 0.000356552
7 *450:7 6.08925e-05
8 *450:8 6.08925e-05

*RES
1 *450:9 *771:Y 1.4
2 *450:8 *450:9 1.4
3 *450:7 *450:8 0.372865
4 *450:6 *450:7 1.4
5 *450:5 *450:6 2.11281
6 *450:4 *450:5 1.4
7 *450:3 *450:4 2.11291
8 *450:2 *450:3 1.4
9 *450:1 *450:2 0.124283
10 *705:B *450:1 1.4
*END

*D_NET *451 0.00142879

*CONN
*I *720:A1 I *C 77.285 31.465 *L 0.00274 *D OAI21X1
*I *772:Y O *C 77.575 39.005 *L 0 *D XNOR2XL
*I *728:B I *C 78.735 36.685 *L 0.00167 *D NAND2XL

*CAP
1 *451:2 2.20059e-05
2 *451:3 2.20059e-05
3 *451:4 0.000420182
4 *451:5 0.000606929
5 *451:6 0.000186747
6 *451:7 8.54611e-05
7 *451:9 8.54611e-05

*RES
1 *451:10 *728:B 1.4
2 *451:9 *451:10 1.4
3 *451:7 *451:9 0.497154
4 *451:6 *772:Y 1.4
5 *451:5 *451:7 1.4
6 *451:5 *451:6 0.994261
7 *451:4 *451:5 2.23709
8 *451:3 *451:4 1.4
9 *451:2 *451:3 0.124289
10 *451:1 *451:2 1.4
11 *720:A1 *451:1 1.4
*END

*D_NET *452 0.000368145

*CONN
*I *695:B0 I *C 70.905 36.685 *L 0.00277 *D AOI21X1
*I *773:Y O *C 70.325 38.425 *L 0 *D NOR3BXL

*CAP
1 *452:2 4.40119e-05
2 *452:3 4.40119e-05
3 *452:4 0.000140061
4 *452:5 0.000140061

*RES
1 *452:5 *773:Y 1.4
2 *452:4 *452:5 0.745696
3 *452:3 *452:4 1.4
4 *452:2 *452:3 0.248578
5 *452:1 *452:2 1.4
6 *695:B0 *452:1 1.4
*END

*D_NET *453 0.00171167

*CONN
*I *808:AN I *C 30.305 57.855 *L 0.00178 *D NAND3BX1
*I *822:Q O *C 31.755 54.375 *L 0 *D SDFFRHQX1
*I *821:SI I *C 28.275 52.345 *L 0.00276 *D SDFFRHQX1

*CAP
1 *453:2 4.72991e-05
2 *453:3 4.72991e-05
3 *453:4 0.000143304
4 *453:5 0.000143304
5 *453:6 7.09486e-05
6 *453:7 7.09486e-05
7 *453:8 0.000143304
8 *453:9 0.000286608
9 *453:11 0.000143304
10 *453:12 0.000283794
11 *453:13 0.000283794
12 *453:14 2.3884e-05
13 *453:15 2.3884e-05

*RES
1 *453:15 *821:SI 1.4
2 *453:14 *453:15 0.124283
3 *453:13 *453:14 1.4
4 *453:12 *453:13 1.4914
5 *453:11 *453:12 1.4
6 *453:9 *453:11 0.745696
7 *453:9 *822:Q 1.4
8 *453:8 *453:9 0.745696
9 *453:7 *453:8 1.4
10 *453:6 *453:7 0.372849
11 *453:5 *453:6 1.4
12 *453:4 *453:5 0.745696
13 *453:3 *453:4 1.4
14 *453:2 *453:3 0.248566
15 *453:1 *453:2 1.4
16 *808:AN *453:1 1.4
*END

*D_NET *454 0.00114127

*CONN
*I *789:A0 I *C 32.045 73.225 *L 0.00267 *D OAI211X1
*I *833:B I *C 30.885 70.325 *L 0.00284 *D NAND2BX1
*I *834:Y O *C 28.855 69.745 *L 0 *D NAND2BX1

*CAP
1 *454:1 0.000262724
2 *454:2 0.000262724
3 *454:3 9.45981e-05
4 *454:4 0.000260145
5 *454:5 2.3884e-05
6 *454:6 0.000165547
7 *454:7 2.3884e-05
8 *454:8 2.3884e-05
9 *454:10 2.3884e-05

*RES
1 *454:10 *834:Y 1.4
2 *454:8 *454:10 0.124283
3 *454:7 *833:B 1.4
4 *454:6 *454:8 1.4
5 *454:5 *454:7 0.124283
6 *454:4 *454:6 0.869981
7 *454:4 *454:5 1.4
8 *454:3 *454:4 0.497132
9 *454:2 *454:3 1.4
10 *454:1 *454:2 1.36711
11 *789:A0 *454:1 1.4
*END

*D_NET *455 0.000668751

*CONN
*I *789:C0 I *C 30.885 73.805 *L 0.00287 *D OAI211X1
*I *833:Y O *C 30.885 69.745 *L 0 *D NAND2BX1

*CAP
1 *455:1 0.000334375
2 *455:2 0.000334375

*RES
1 *455:2 *833:Y 1.4
2 *455:1 *455:2 1.73996
3 *789:C0 *455:1 1.4
*END

*D_NET *456 0.00257952

*CONN
*I *814:A I *C 36.395 62.785 *L 0.00157 *D NAND2XL
*I *784:B0 I *C 37.265 65.395 *L 0.00164 *D OAI222XL
*I *811:A0 I *C 37.265 63.075 *L 0.00157 *D OA21XL
*I *798:A I *C 41.035 65.105 *L 0.00162 *D NOR2XL
*I *796:A I *C 38.135 68.005 *L 0.0017 *D MXI2XL
*I *832:Y O *C 43.2725 65.105 *L 0 *D CLKINVX1

*CAP
1 *456:2 2.36495e-05
2 *456:3 2.36495e-05
3 *456:4 0.000167188
4 *456:5 0.000167188
5 *456:6 4.72991e-05
6 *456:7 0.000212846
7 *456:8 0.000165547
8 *456:9 0.000191072
9 *456:10 2.3884e-05
10 *456:11 4.77679e-05
11 *456:12 0.000143304
12 *456:13 0.000262724
13 *456:16 0.000141897
14 *456:17 0.00023884
15 *456:18 0.000331093
16 *456:19 9.45981e-05
17 *456:20 0.000189196
18 *456:22 9.45981e-05
19 *456:23 6.58868e-06
20 *456:26 6.58868e-06

*RES
1 *456:26 *832:Y 1.4
2 *456:25 *796:A 1.4
3 *456:23 *456:26 0.0342849
4 *456:22 *456:25 1.4
5 *456:21 *798:A 1.4
6 *456:20 *456:23 1.4
7 *456:19 *456:22 0.497132
8 *456:18 *456:21 1.4
9 *456:18 *456:20 0.994263
10 *456:17 *456:19 1.4
11 *456:16 *456:18 0.745698
12 *456:13 *456:17 1.24283
13 *456:13 *456:16 1.4
14 *456:12 *811:A0 1.4
15 *456:11 *784:B0 1.4
16 *456:10 *456:13 0.124283
17 *456:9 *456:12 0.745696
18 *456:9 *456:11 0.248565
19 *456:8 *456:10 1.4
20 *456:7 *456:9 1.4
21 *456:7 *456:8 0.869981
22 *456:6 *456:7 0.248566
23 *456:5 *456:6 1.4
24 *456:4 *456:5 0.869979
25 *456:3 *456:4 1.4
26 *456:2 *456:3 0.124283
27 *456:1 *456:2 1.4
28 *814:A *456:1 1.4
*END

*D_NET *457 0.00148871

*CONN
*I *812:C0 I *C 33.205 63.075 *L 0.00281 *D AOI211X1
*I *831:Y O *C 32.9975 57.855 *L 0 *D INVX1

*CAP
1 *457:2 0.000141897
2 *457:3 0.000141897
3 *457:4 0.000429911
4 *457:5 0.000429911
5 *457:6 0.000165547
6 *457:7 0.000165547
7 *457:8 7.00047e-06
8 *457:9 7.00047e-06

*RES
1 *457:9 *831:Y 1.4
2 *457:8 *457:9 0.0364277
3 *457:7 *457:8 1.4
4 *457:6 *457:7 0.869981
5 *457:5 *457:6 1.4
6 *457:4 *457:5 2.23709
7 *457:3 *457:4 1.4
8 *457:2 *457:3 0.745698
9 *457:1 *457:2 1.4
10 *812:C0 *457:1 1.4
*END

*D_NET *458 0.00343793

*CONN
*I *779:A1 I *C 41.325 73.225 *L 0.00167 *D OAI31XL
*I *780:A I *C 40.745 78.445 *L 0.0017 *D MXI2XL
*I *775:C1 I *C 39.005 75.835 *L 0.00179 *D OAI222XL
*I *830:Y O *C 39.0875 78.735 *L 0 *D CLKINVX1
*I *791:B I *C 36.1 78.105 *L 0.00164 *D MXI2XL
*I *813:B I *C 33.205 78.735 *L 0.00272 *D NOR3X1
*I *794:A I *C 34.075 75.835 *L 0.00157 *D NAND2XL

*CAP
1 *458:1 0.00011942
2 *458:2 0.00011942
3 *458:3 0.000165547
4 *458:4 0.000165547
5 *458:5 0.000309039
6 *458:6 0.000309039
7 *458:7 0.000127371
8 *458:8 0.000106142
9 *458:9 0.000233513
10 *458:11 0.000234481
11 *458:12 0.000297199
12 *458:14 2.7127e-05
13 *458:15 0.000213503
14 *458:16 2.6549e-05
15 *458:17 8.4914e-05
16 *458:18 6.14879e-06
17 *458:20 2.69608e-05
18 *458:21 0.000234481
19 *458:23 4.11792e-07
20 *458:24 2.09782e-05
21 *458:25 0.000213503
22 *458:27 0.000127371
23 *458:28 7.09486e-05
24 *458:29 0.000127371
25 *458:30 7.09486e-05

*RES
1 *458:32 *794:A 1.4
2 *458:31 *813:B 1.4
3 *458:30 *458:32 1.4
4 *458:29 *458:31 1.4
5 *458:28 *458:30 0.372849
6 *458:27 *458:29 0.745698
7 *458:25 *458:28 1.4
8 *458:24 *458:27 1.4
9 *458:23 *791:B 1.4
10 *458:21 *458:25 1.11854
11 *458:21 *458:24 0.124283
12 *458:20 *458:23 0.0021428
13 *458:18 *830:Y 1.4
14 *458:17 *458:21 1.4
15 *458:16 *458:20 0.145711
16 *458:15 *775:C1 1.4
17 *458:14 *458:18 0.0364278
18 *458:12 *458:17 0.497132
19 *458:12 *458:16 1.4
20 *458:11 *458:15 1.11854
21 *458:11 *458:14 0.124283
22 *458:10 *780:A 1.4
23 *458:9 *458:12 1.24283
24 *458:9 *458:11 1.4
25 *458:8 *458:10 1.4
26 *458:7 *458:9 0.124283
27 *458:7 *458:8 0.621415
28 *458:6 *458:7 1.4
29 *458:5 *458:6 1.61567
30 *458:4 *458:5 1.4
31 *458:3 *458:4 0.869981
32 *458:2 *458:3 1.4
33 *458:1 *458:2 0.621413
34 *779:A1 *458:1 1.4
*END

*D_NET *459 0.00248875

*CONN
*I *818:A I *C 28.275 62.785 *L 0.00157 *D NAND2XL
*I *793:B0 I *C 27.695 65.395 *L 0.00164 *D OAI222XL
*I *815:B I *C 23.63 62.445 *L 0.00164 *D MXI2XL
*I *817:A I *C 23.345 65.395 *L 0.00564 *D NOR2X2
*I *829:Y O *C 22.2675 63.075 *L 0 *D CLKINVX1
*I *816:A I *C 21.895 65.395 *L 0.0017 *D MXI2XL

*CAP
1 *459:1 2.3884e-05
2 *459:2 2.3884e-05
3 *459:3 4.72991e-05
4 *459:4 0.000351343
5 *459:5 0.00023884
6 *459:6 0.000385913
7 *459:7 0.00023884
8 *459:8 3.75508e-06
9 *459:9 8.18689e-05
10 *459:11 4.13059e-06
11 *459:12 2.17795e-05
12 *459:13 3.75508e-07
13 *459:14 0.000217795
14 *459:16 0.000196015
15 *459:17 2.04672e-05
16 *459:18 6.14017e-05
17 *459:19 4.09345e-05
18 *459:20 6.14017e-05
19 *459:21 2.17795e-05
20 *459:22 2.04672e-05
21 *459:24 2.81631e-05
22 *459:25 0.000196015
23 *459:27 6.38364e-06
24 *459:28 0.000196015

*RES
1 *459:28 *816:A 1.4
2 *459:27 *829:Y 1.4
3 *459:25 *459:28 1.11854
4 *459:24 *459:27 0.0364277
5 *459:23 *817:A 1.4
6 *459:22 *459:25 1.4
7 *459:21 *459:24 0.124283
8 *459:20 *459:23 1.4
9 *459:19 *459:22 0.124283
10 *459:19 *459:21 1.4
11 *459:18 *459:20 0.372849
12 *459:17 *459:19 0.124283
13 *459:16 *459:18 1.4
14 *459:14 *459:17 1.4
15 *459:14 *459:16 1.11854
16 *459:13 *815:B 1.4
17 *459:12 *459:14 0.124283
18 *459:11 *459:13 0.0021428
19 *459:9 *459:12 1.4
20 *459:8 *459:11 0.021428
21 *459:7 *793:B0 1.4
22 *459:6 *459:9 0.497132
23 *459:6 *459:8 1.4
24 *459:5 *459:7 1.24283
25 *459:4 *459:6 1.73996
26 *459:4 *459:5 1.4
27 *459:3 *459:4 0.248566
28 *459:2 *459:3 1.4
29 *459:1 *459:2 0.124283
30 *818:A *459:1 1.4
*END

*D_NET *460 0.00081583

*CONN
*I *807:B I *C 29.72 67.665 *L 0.00164 *D MXI2XL
*I *792:B0 I *C 30.595 65.395 *L 0.00164 *D OAI222XL
*I *828:Y O *C 31.5475 68.295 *L 0 *D CLKINVX1

*CAP
1 *460:1 4.11792e-07
2 *460:2 2.01778e-05
3 *460:3 1.9766e-05
4 *460:4 7.09486e-05
5 *460:5 7.09486e-05
6 *460:6 0.00023884
7 *460:7 7.16519e-05
8 *460:8 0.000167188
9 *460:9 7.09486e-05
10 *460:11 7.09486e-05
11 *460:12 7.00047e-06
12 *460:13 7.00047e-06

*RES
1 *460:13 *828:Y 1.4
2 *460:12 *460:13 0.0364277
3 *460:11 *460:12 1.4
4 *460:9 *460:11 0.372849
5 *460:8 *792:B0 1.4
6 *460:7 *460:9 1.4
7 *460:6 *460:8 0.869979
8 *460:6 *460:7 0.372848
9 *460:5 *460:6 1.4
10 *460:4 *460:5 0.372849
11 *460:3 *460:4 1.4
12 *460:2 *460:3 0.102855
13 *460:1 *460:2 0.0021428
14 *807:B *460:1 1.4
*END

*D_NET *461 0.00012861

*CONN
*I *820:B I *C 26.245 62.785 *L 0.00172 *D AND2X1
*I *825:Y O *C 25.665 62.495 *L 0 *D NOR2XL

*CAP
1 *461:2 4.25256e-05
2 *461:3 4.25256e-05
3 *461:4 2.17795e-05
4 *461:5 2.17795e-05

*RES
1 *461:5 *825:Y 1.4
2 *461:4 *461:5 0.124283
3 *461:3 *461:4 1.4
4 *461:2 *461:3 0.248566
5 *461:1 *461:2 1.4
6 *820:B *461:1 1.4
*END

*D_NET *462 0.000970821

*CONN
*I *813:A I *C 33.495 78.735 *L 0.00259 *D NOR3X1
*I *824:Y O *C 33.205 75.255 *L 0 *D NAND2XL

*CAP
1 *462:2 8.4914e-05
2 *462:3 8.4914e-05
3 *462:4 0.000282249
4 *462:5 0.000282249
5 *462:6 0.000118248
6 *462:7 0.000118248

*RES
1 *462:8 *824:Y 1.4
2 *462:7 *462:8 1.4
3 *462:6 *462:7 0.621415
4 *462:5 *462:6 1.4
5 *462:4 *462:5 1.49139
6 *462:3 *462:4 1.4
7 *462:2 *462:3 0.497132
8 *462:1 *462:2 1.4
9 *813:A *462:1 1.4
*END

*D_NET *463 0.0026549

*CONN
*I *815:S0 I *C 23.925 62.785 *L 0.00372 *D MXI2XL
*I *820:A I *C 26.825 62.785 *L 0.00178 *D AND2X1
*I *818:B I *C 28.855 62.785 *L 0.00167 *D NAND2XL
*I *827:Y O *C 26.245 69.745 *L 0 *D NOR2X1
*I *834:AN I *C 27.985 70.325 *L 0.00178 *D NAND2BX1

*CAP
1 *463:1 4.3559e-05
2 *463:2 4.3559e-05
3 *463:3 0.000212628
4 *463:4 0.000212628
5 *463:5 4.77679e-05
6 *463:6 9.55358e-05
7 *463:7 4.77679e-05
8 *463:9 0.000212846
9 *463:10 0.000165547
10 *463:11 4.72991e-05
11 *463:12 4.77679e-05
12 *463:13 0.000525447
13 *463:14 4.77679e-05
14 *463:15 0.000525447
15 *463:17 0.000141897
16 *463:19 0.000141897
17 *463:20 4.77679e-05
18 *463:21 4.77679e-05

*RES
1 *463:21 *834:AN 1.4
2 *463:20 *463:21 0.248565
3 *463:19 *463:20 1.4
4 *463:17 *463:19 0.745698
5 *463:15 *827:Y 1.4
6 *463:15 *463:17 1.4
7 *463:14 *818:B 1.4
8 *463:13 *463:15 2.73422
9 *463:12 *463:14 0.248565
10 *463:11 *463:13 1.4
11 *463:10 *463:12 1.4
12 *463:9 *463:11 0.248566
13 *463:9 *463:10 0.869981
14 *463:7 *463:9 1.4
15 *463:6 *820:A 1.4
16 *463:6 *463:7 0.248565
17 *463:5 *463:6 0.248565
18 *463:4 *463:5 1.4
19 *463:3 *463:4 1.24283
20 *463:2 *463:3 1.4
21 *463:1 *463:2 0.248565
22 *815:S0 *463:1 1.4
*END

*D_NET *464 0.00212295

*CONN
*I *816:S0 I *C 21.025 65.395 *L 0.00372 *D MXI2XL
*I *817:B I *C 23.635 65.685 *L 0.00542 *D NOR2X2
*I *826:Y O *C 24.215 70.905 *L 0 *D NAND2X2
*I *834:B I *C 28.855 70.325 *L 0.00284 *D NAND2BX1

*CAP
1 *464:1 2.17795e-05
2 *464:2 2.17795e-05
3 *464:3 0.000143271
4 *464:4 0.000184205
5 *464:5 0.000370251
6 *464:6 4.09345e-05
7 *464:7 0.000370251
8 *464:9 8.18689e-05
9 *464:11 0.000439576
10 *464:12 2.17795e-05
11 *464:13 0.000357707
12 *464:14 2.17795e-05
13 *464:15 2.3884e-05
14 *464:17 2.3884e-05

*RES
1 *464:17 *834:B 1.4
2 *464:15 *464:17 0.124283
3 *464:14 *826:Y 1.4
4 *464:13 *464:15 1.4
5 *464:12 *464:14 0.124283
6 *464:11 *464:13 1.98853
7 *464:11 *464:12 1.4
8 *464:9 *464:11 0.497132
9 *464:8 *817:B 1.4
10 *464:7 *464:9 1.4
11 *464:6 *464:8 1.4
12 *464:5 *464:7 2.11281
13 *464:4 *464:6 0.248566
14 *464:4 *464:5 1.4
15 *464:3 *464:4 0.869982
16 *464:2 *464:3 1.4
17 *464:1 *464:2 0.124283
18 *816:S0 *464:1 1.4
*END

*D_NET *465 0.000805682

*CONN
*I *813:C I *C 32.915 78.445 *L 0.00278 *D NOR3X1
*I *823:Y O *C 37.845 79.025 *L 0 *D NAND2XL

*CAP
1 *465:1 4.19564e-05
2 *465:2 4.19564e-05
3 *465:3 0.000360884
4 *465:4 0.000360884

*RES
1 *465:5 *823:Y 1.4
2 *465:4 *465:5 1.4
3 *465:3 *465:4 2.11281
4 *465:2 *465:3 1.4
5 *465:1 *465:2 0.248566
6 *813:C *465:1 1.4
*END

*D_NET *466 0.00243619

*CONN
*I *812:A0 I *C 34.42 63.0875 *L 0.00263 *D AOI211X1
*I *819:Y O *C 38.425 73.805 *L 0 *D NOR4X1

*CAP
1 *466:1 4.52972e-06
2 *466:2 5.10623e-05
3 *466:3 4.65325e-05
4 *466:4 0.000331093
5 *466:5 0.000331093
6 *466:6 0.000835939
7 *466:7 0.000835939

*RES
1 *466:9 *819:Y 1.4
2 *466:8 *466:9 1.4
3 *466:7 *466:8 1.4
4 *466:6 *466:7 4.34989
5 *466:5 *466:6 1.4
6 *466:4 *466:5 1.73996
7 *466:3 *466:4 1.4
8 *466:2 *466:3 0.242137
9 *466:1 *466:2 0.0235709
10 *812:A0 *466:1 1.4
*END

*D_NET *467 0.000331562

*CONN
*I *804:A1 I *C 30.595 63.075 *L 0.00278 *D AOI21X1
*I *818:Y O *C 28.855 63.365 *L 0 *D NAND2XL

*CAP
1 *467:2 0.000141897
2 *467:3 0.000141897
3 *467:4 2.3884e-05
4 *467:5 2.3884e-05

*RES
1 *467:5 *818:Y 1.4
2 *467:4 *467:5 0.124283
3 *467:3 *467:4 1.4
4 *467:2 *467:3 0.745698
5 *467:1 *467:2 1.4
6 *804:A1 *467:1 1.4
*END

*D_NET *468 0.00179877

*CONN
*I *811:A1 I *C 37.555 62.785 *L 0.00162 *D OA21XL
*I *814:B I *C 35.815 62.785 *L 0.00167 *D NAND2XL
*I *812:A1 I *C 34.075 63.075 *L 0.00279 *D AOI211X1
*I *804:B0 I *C 30.885 62.785 *L 0.00277 *D AOI21X1
*I *820:Y O *C 27.405 63.365 *L 0 *D AND2X1

*CAP
1 *468:2 0.000141897
2 *468:3 0.000283794
3 *468:5 0.000402042
4 *468:7 2.3884e-05
5 *468:8 0.000543939
6 *468:9 2.3884e-05
7 *468:11 0.000283794
8 *468:14 4.77679e-05
9 *468:15 4.77679e-05

*RES
1 *468:15 *820:Y 1.4
2 *468:14 *468:15 0.248565
3 *468:11 *468:14 1.4
4 *468:10 *804:B0 1.4
5 *468:9 *812:A1 1.4
6 *468:8 *468:11 1.4914
7 *468:8 *468:10 1.4
8 *468:7 *468:9 0.124283
9 *468:5 *468:8 1.36711
10 *468:5 *468:7 1.4
11 *468:4 *814:B 1.4
12 *468:3 *468:5 0.745698
13 *468:3 *468:4 1.4
14 *468:2 *468:3 0.745698
15 *468:1 *468:2 1.4
16 *811:A1 *468:1 1.4
*END

*D_NET *469 0.0027046

*CONN
*I *810:A I *C 30.305 70.615 *L 0.00157 *D NAND2XL
*I *809:B I *C 32.625 68.585 *L 0.00284 *D NAND2X1
*I *807:S0 I *C 30.015 68.005 *L 0.00372 *D MXI2XL
*I *817:Y O *C 23.925 65.975 *L 0 *D NOR2X2

*CAP
1 *469:2 9.45981e-05
2 *469:3 9.45981e-05
3 *469:4 0.000167188
4 *469:5 0.000214956
5 *469:6 9.45981e-05
6 *469:7 4.77679e-05
7 *469:8 9.45981e-05
8 *469:9 0.000118248
9 *469:11 0.000693357
10 *469:14 0.000575109
11 *469:16 0.000152456
12 *469:17 0.000152456
13 *469:18 0.000102336
14 *469:19 0.000102336

*RES
1 *469:20 *817:Y 1.4
2 *469:19 *469:20 1.4
3 *469:18 *469:19 0.621415
4 *469:17 *469:18 1.4
5 *469:16 *469:17 0.869979
6 *469:14 *469:16 1.4
7 *469:13 *807:S0 1.4
8 *469:11 *469:14 3.23136
9 *469:11 *469:13 1.4
10 *469:10 *809:B 1.4
11 *469:9 *469:11 0.621415
12 *469:8 *469:10 1.4
13 *469:7 *469:9 1.4
14 *469:6 *469:8 0.497132
15 *469:5 *469:7 0.248565
16 *469:5 *469:6 1.4
17 *469:4 *469:5 0.869979
18 *469:3 *469:4 1.4
19 *469:2 *469:3 0.497132
20 *469:1 *469:2 1.4
21 *810:A *469:1 1.4
*END

*D_NET *470 0.00112785

*CONN
*I *793:C1 I *C 28.565 65.395 *L 0.00179 *D OAI222XL
*I *816:Y O *C 21.605 64.815 *L 0 *D MXI2XL

*CAP
1 *470:1 2.3884e-05
2 *470:2 2.3884e-05
3 *470:3 0.000518263
4 *470:4 0.000518263
5 *470:5 2.17795e-05
6 *470:6 2.17795e-05

*RES
1 *470:6 *816:Y 1.4
2 *470:5 *470:6 0.124283
3 *470:4 *470:5 1.4
4 *470:3 *470:4 2.98279
5 *470:2 *470:3 1.4
6 *470:1 *470:2 0.124283
7 *793:C1 *470:1 1.4
*END

*D_NET *471 0.00060147

*CONN
*I *793:A0 I *C 26.245 65.105 *L 0.00163 *D OAI222XL
*I *815:Y O *C 24.505 63.365 *L 0 *D MXI2XL

*CAP
1 *471:1 2.3884e-05
2 *471:2 2.3884e-05
3 *471:3 0.000124395
4 *471:4 0.000124395
5 *471:5 0.000152456
6 *471:6 0.000152456

*RES
1 *471:6 *815:Y 1.4
2 *471:5 *471:6 0.869979
3 *471:4 *471:5 1.4
4 *471:3 *471:4 0.745699
5 *471:2 *471:3 1.4
6 *471:1 *471:2 0.124283
7 *793:A0 *471:1 1.4
*END

*D_NET *472 0.00196414

*CONN
*I *810:B I *C 29.725 70.615 *L 0.00167 *D NAND2XL
*I *813:Y O *C 33.205 79.025 *L 0 *D NOR3X1

*CAP
1 *472:1 0.000706349
2 *472:2 0.000706349
3 *472:3 0.000254742
4 *472:4 0.000254742
5 *472:5 2.09782e-05
6 *472:6 2.09782e-05

*RES
1 *472:6 *813:Y 1.4
2 *472:5 *472:6 0.124283
3 *472:4 *472:5 1.4
4 *472:3 *472:4 1.4914
5 *472:2 *472:3 1.4
6 *472:1 *472:2 3.72848
7 *810:B *472:1 1.4
*END

*D_NET *473 0.00152248

*CONN
*I *811:B0 I *C 38.135 63.365 *L 0.0017 *D OA21XL
*I *814:Y O *C 35.815 63.365 *L 0 *D NAND2XL
*I *802:A1 I *C 36.975 68.295 *L 0.00278 *D AOI21X1
*I *805:B I *C 35.525 68.295 *L 0.0028 *D NOR2X1

*CAP
1 *473:1 4.77679e-05
2 *473:2 4.77679e-05
3 *473:3 0.000189196
4 *473:4 0.000189196
5 *473:5 0.000406027
6 *473:6 0.000358259
7 *473:7 4.77679e-05
8 *473:8 0.000118248
9 *473:10 9.45981e-05
10 *473:11 2.36495e-05

*RES
1 *473:13 *805:B 1.4
2 *473:12 *802:A1 1.4
3 *473:11 *473:13 1.4
4 *473:10 *473:12 1.4
5 *473:8 *473:11 0.124283
6 *473:8 *473:10 0.497132
7 *473:7 *814:Y 1.4
8 *473:6 *473:8 1.4
9 *473:5 *473:7 0.248565
10 *473:5 *473:6 1.86424
11 *473:4 *473:5 1.4
12 *473:3 *473:4 0.994263
13 *473:2 *473:3 1.4
14 *473:1 *473:2 0.248565
15 *811:B0 *473:1 1.4
*END

*D_NET *474 0.00147424

*CONN
*I *803:A I *C 33.785 68.295 *L 0.00263 *D NOR2X1
*I *800:A I *C 34.075 65.395 *L 0.00157 *D NAND2XL
*I *812:Y O *C 33.785 63.365 *L 0 *D AOI211X1

*CAP
1 *474:2 0.000118248
2 *474:3 0.000118248
3 *474:4 0.00023884
4 *474:5 0.000406027
5 *474:6 9.45981e-05
6 *474:7 0.000167188
7 *474:8 9.45981e-05
8 *474:9 0.000118248
9 *474:11 0.000118248

*RES
1 *474:13 *812:Y 1.4
2 *474:11 *474:13 1.4
3 *474:10 *800:A 1.4
4 *474:9 *474:11 0.621415
5 *474:8 *474:10 1.4
6 *474:7 *474:9 1.4
7 *474:6 *474:8 0.497132
8 *474:5 *474:7 0.869979
9 *474:5 *474:6 1.4
10 *474:4 *474:5 1.24283
11 *474:3 *474:4 1.4
12 *474:2 *474:3 0.621415
13 *474:1 *474:2 1.4
14 *803:A *474:1 1.4
*END

*D_NET *475 0.000429911

*CONN
*I *784:A0 I *C 38.715 65.105 *L 0.00163 *D OAI222XL
*I *811:Y O *C 38.715 62.495 *L 0 *D OA21XL

*CAP
1 *475:1 0.000214956
2 *475:2 0.000214956

*RES
1 *475:2 *811:Y 1.4
2 *475:1 *475:2 1.11854
3 *784:A0 *475:1 1.4
*END

*D_NET *476 0.00210085

*CONN
*I *808:C I *C 29.145 57.855 *L 0.00289 *D NAND3BX1
*I *810:Y O *C 29.725 70.035 *L 0 *D NAND2XL

*CAP
1 *476:2 2.36495e-05
2 *476:3 2.36495e-05
3 *476:4 0.00100313
4 *476:5 0.00100313
5 *476:6 2.36495e-05
6 *476:7 2.36495e-05

*RES
1 *476:8 *810:Y 1.4
2 *476:7 *476:8 1.4
3 *476:6 *476:7 0.124283
4 *476:5 *476:6 1.4
5 *476:4 *476:5 5.21987
6 *476:3 *476:4 1.4
7 *476:2 *476:3 0.124283
8 *476:1 *476:2 1.4
9 *808:C *476:1 1.4
*END

*D_NET *477 0.00184888

*CONN
*I *798:B I *C 41.325 65.395 *L 0.00171 *D NOR2XL
*I *796:S0 I *C 39.005 68.005 *L 0.00372 *D MXI2XL
*I *809:Y O *C 32.625 67.715 *L 0 *D NAND2X1

*CAP
1 *477:1 4.77679e-05
2 *477:2 4.77679e-05
3 *477:3 7.09486e-05
4 *477:4 7.09486e-05
5 *477:5 0.000143304
6 *477:6 0.000143304
7 *477:7 0.000118248
8 *477:8 0.000638537
9 *477:9 2.3884e-05
10 *477:10 0.00052029
11 *477:11 2.3884e-05

*RES
1 *477:12 *809:Y 1.4
2 *477:11 *796:S0 1.4
3 *477:10 *477:12 1.4
4 *477:9 *477:11 0.124283
5 *477:8 *477:10 2.73422
6 *477:8 *477:9 1.4
7 *477:7 *477:8 0.621415
8 *477:6 *477:7 1.4
9 *477:5 *477:6 0.745696
10 *477:4 *477:5 1.4
11 *477:3 *477:4 0.372849
12 *477:2 *477:3 1.4
13 *477:1 *477:2 0.248565
14 *798:B *477:1 1.4
*END

*D_NET *478 0.000667344

*CONN
*I *792:C1 I *C 29.725 65.395 *L 0.00179 *D OAI222XL
*I *807:Y O *C 30.595 68.585 *L 0 *D MXI2XL

*CAP
1 *478:1 0.000262724
2 *478:2 0.000262724
3 *478:3 7.09486e-05
4 *478:4 7.09486e-05

*RES
1 *478:5 *807:Y 1.4
2 *478:4 *478:5 1.4
3 *478:3 *478:4 0.372849
4 *478:2 *478:3 1.4
5 *478:1 *478:2 1.36711
6 *792:C1 *478:1 1.4
*END

*D_NET *479 0.00238657

*CONN
*I *782:A0 I *C 33.785 73.515 *L 0.00268 *D OAI31X1
*I *783:B0 I *C 41.615 70.615 *L 0.0028 *D OAI211X1
*I *806:Y O *C 34.2825 70.325 *L 0 *D CLKINVX1
*I *803:B I *C 34.075 68.295 *L 0.0028 *D NOR2X1

*CAP
1 *479:2 7.09486e-05
2 *479:3 7.09486e-05
3 *479:4 0.00023884
4 *479:5 0.00023884
5 *479:6 2.36495e-05
6 *479:7 0.000567589
7 *479:8 0.000543939
8 *479:9 2.3884e-05
9 *479:11 0.000191072
10 *479:13 4.72991e-05
11 *479:14 0.000167188
12 *479:15 4.72991e-05
13 *479:16 7.09486e-05
14 *479:17 6.58868e-06
15 *479:18 7.09486e-05
16 *479:19 6.58868e-06

*RES
1 *479:20 *803:B 1.4
2 *479:19 *806:Y 1.4
3 *479:18 *479:20 1.4
4 *479:17 *479:19 0.0342849
5 *479:16 *479:18 0.372849
6 *479:15 *479:17 1.4
7 *479:14 *479:16 1.4
8 *479:13 *479:15 0.248566
9 *479:11 *479:14 0.869979
10 *479:11 *479:13 1.4
11 *479:10 *783:B0 1.4
12 *479:9 *479:11 0.124283
13 *479:8 *479:10 1.4
14 *479:7 *479:9 1.4
15 *479:7 *479:8 2.85851
16 *479:6 *479:7 0.124283
17 *479:5 *479:6 1.4
18 *479:4 *479:5 1.24283
19 *479:3 *479:4 1.4
20 *479:2 *479:3 0.372849
21 *479:1 *479:2 1.4
22 *782:A0 *479:1 1.4
*END

*D_NET *480 0.00727614

*CONN
*I *775:B0 I *C 38.135 75.835 *L 0.00164 *D OAI222XL
*I *779:A0 I *C 40.745 73.225 *L 0.00161 *D OAI31XL
*I *806:A I *C 34.655 70.325 *L 0.00273 *D CLKINVX1
*I *800:B I *C 34.655 65.395 *L 0.00167 *D NAND2XL
*I *784:C1 I *C 36.395 65.395 *L 0.00179 *D OAI222XL
*I *792:C0 I *C 30.305 65.395 *L 0.00167 *D OAI222XL
*I *808:Y O *C 28.855 57.275 *L 0 *D NAND3BX1
*I *789:A1 I *C 31.465 73.225 *L 0.00278 *D OAI211X1
*I *793:C0 I *C 27.985 65.395 *L 0.00167 *D OAI222XL

*CAP
1 *480:2 7.09486e-05
2 *480:3 7.09486e-05
3 *480:4 0.000286608
4 *480:5 0.000286608
5 *480:6 2.36495e-05
6 *480:7 0.000141897
7 *480:8 0.000118248
8 *480:9 0.000167188
9 *480:10 7.16519e-05
10 *480:11 0.000167188
11 *480:12 7.16519e-05
12 *480:13 0.000378392
13 *480:15 0.000378392
14 *480:16 0.000525447
15 *480:17 0.00011942
16 *480:19 0.000429911
17 *480:20 4.72991e-05
18 *480:22 4.77679e-05
19 *480:23 4.72991e-05
20 *480:24 0.000141897
21 *480:25 2.3884e-05
22 *480:26 0.000143304
23 *480:27 0.000141897
24 *480:28 0.000354743
25 *480:29 0.000143304
26 *480:30 2.3884e-05
27 *480:31 0.000472991
28 *480:32 0.000307444
29 *480:33 2.3884e-05
30 *480:34 4.77679e-05
31 *480:35 0.000118248
32 *480:36 0.000307444
33 *480:38 4.77679e-05
34 *480:39 0.000668751
35 *480:40 2.3884e-05
36 *480:42 4.77679e-05
37 *480:43 0.000620983
38 *480:44 2.3884e-05
39 *480:45 7.09486e-05
40 *480:48 7.09486e-05

*RES
1 *480:49 *793:C0 1.4
2 *480:48 *480:49 1.4
3 *480:45 *480:48 0.372849
4 *480:44 *789:A1 1.4
5 *480:43 *808:Y 1.4
6 *480:42 *480:45 1.4
7 *480:40 *480:44 0.124283
8 *480:39 *480:43 3.23135
9 *480:39 *480:42 0.248565
10 *480:38 *792:C0 1.4
11 *480:36 *480:40 1.4
12 *480:35 *480:39 1.4
13 *480:34 *480:38 0.248565
14 *480:33 *784:C1 1.4
15 *480:32 *480:36 1.61568
16 *480:31 *480:35 0.621415
17 *480:31 *480:34 1.4
18 *480:30 *480:33 0.124283
19 *480:29 *480:32 1.4
20 *480:28 *480:31 1.86424
21 *480:27 *480:30 1.4
22 *480:26 *480:29 0.745696
23 *480:25 *480:28 1.4
24 *480:24 *480:27 0.745698
25 *480:23 *480:26 1.4
26 *480:22 *480:25 0.124283
27 *480:22 *480:24 1.4
28 *480:20 *480:23 0.248566
29 *480:19 *480:22 0.124283
30 *480:19 *800:B 1.4
31 *480:17 *480:20 1.4
32 *480:16 *480:19 2.11281
33 *480:16 *806:A 1.4
34 *480:16 *480:17 0.621413
35 *480:15 *480:16 1.4
36 *480:13 *480:15 1.98853
37 *480:12 *779:A0 1.4
38 *480:11 *480:13 1.4
39 *480:10 *480:12 0.372848
40 *480:9 *480:11 0.869979
41 *480:8 *480:10 1.4
42 *480:7 *480:9 1.4
43 *480:7 *480:8 0.621415
44 *480:6 *480:7 0.124283
45 *480:5 *480:6 1.4
46 *480:4 *480:5 1.49139
47 *480:3 *480:4 1.4
48 *480:2 *480:3 0.372849
49 *480:1 *480:2 1.4
50 *775:B0 *480:1 1.4
*END

*D_NET *481 0.000428974

*CONN
*I *792:A0 I *C 32.045 65.105 *L 0.00163 *D OAI222XL
*I *804:Y O *C 31.465 63.075 *L 0 *D AOI21X1

*CAP
1 *481:1 0.000167188
2 *481:2 0.000167188
3 *481:3 4.72991e-05
4 *481:4 4.72991e-05

*RES
1 *481:5 *804:Y 1.4
2 *481:4 *481:5 1.4
3 *481:3 *481:4 0.248566
4 *481:2 *481:3 1.4
5 *481:1 *481:2 0.869979
6 *792:A0 *481:1 1.4
*END

*D_NET *482 0.00246962

*CONN
*I *791:S0 I *C 36.395 78.445 *L 0.00372 *D MXI2XL
*I *794:B I *C 34.655 75.835 *L 0.00167 *D NAND2XL
*I *805:Y O *C 35.525 68.875 *L 0 *D NOR2X1
*I *802:B0 I *C 37.265 68.005 *L 0.00277 *D AOI21X1

*CAP
1 *482:2 2.12285e-05
2 *482:3 2.12285e-05
3 *482:4 0.000165735
4 *482:5 0.000165735
5 *482:6 2.36495e-05
6 *482:7 0.000165547
7 *482:8 0.000620983
8 *482:9 0.000141897
9 *482:10 0.000692635
10 *482:11 4.77679e-05
11 *482:12 7.09486e-05
12 *482:13 7.16519e-05
13 *482:14 4.77679e-05
14 *482:15 7.09486e-05
15 *482:16 7.09486e-05
16 *482:19 7.09486e-05

*RES
1 *482:21 *802:B0 1.4
2 *482:19 *482:21 1.4
3 *482:18 *805:Y 1.4
4 *482:16 *482:19 0.372849
5 *482:15 *482:18 1.4
6 *482:14 *794:B 1.4
7 *482:13 *482:16 1.4
8 *482:12 *482:15 0.372849
9 *482:11 *482:14 0.248565
10 *482:10 *482:13 0.372848
11 *482:10 *482:12 1.4
12 *482:9 *482:11 1.4
13 *482:8 *482:10 3.23135
14 *482:7 *482:9 0.745698
15 *482:7 *482:8 1.4
16 *482:6 *482:7 0.124283
17 *482:5 *482:6 1.4
18 *482:4 *482:5 0.869979
19 *482:3 *482:4 1.4
20 *482:2 *482:3 0.124283
21 *482:1 *482:2 1.4
22 *791:S0 *482:1 1.4
*END

*D_NET *483 0.000429442

*CONN
*I *778:A0 I *C 37.555 70.615 *L 0.00267 *D OAI211X1
*I *802:Y O *C 37.845 68.295 *L 0 *D AOI21X1

*CAP
1 *483:1 0.000191072
2 *483:2 0.000191072
3 *483:3 2.36495e-05
4 *483:4 2.36495e-05

*RES
1 *483:5 *802:Y 1.4
2 *483:4 *483:5 1.4
3 *483:3 *483:4 0.124283
4 *483:2 *483:3 1.4
5 *483:1 *483:2 0.994261
6 *778:A0 *483:1 1.4
*END

*D_NET *484 0.0055707

*CONN
*I *793:B1 I *C 27.405 65.395 *L 0.00164 *D OAI222XL
*I *792:B1 I *C 30.885 65.395 *L 0.00164 *D OAI222XL
*I *784:B1 I *C 37.555 65.395 *L 0.00164 *D OAI222XL
*I *801:Y O *C 32.5425 70.325 *L 0 *D CLKINVX1
*I *775:C0 I *C 38.425 75.835 *L 0.00167 *D OAI222XL
*I *795:B I *C 28.85 72.885 *L 0.00164 *D MXI2XL

*CAP
1 *484:1 4.77679e-05
2 *484:2 4.77679e-05
3 *484:3 0.000283794
4 *484:4 0.000283794
5 *484:5 4.77679e-05
6 *484:6 4.77679e-05
7 *484:7 0.000141897
8 *484:9 0.000543939
9 *484:10 0.000406027
10 *484:11 0.000472991
11 *484:12 0.000532036
12 *484:13 7.09486e-05
13 *484:15 0.00011942
14 *484:16 6.58868e-06
15 *484:17 0.000859823
16 *484:19 0.000307444
17 *484:21 0.000859823
18 *484:22 0.000307444
19 *484:24 9.14179e-05
20 *484:25 9.18297e-05
21 *484:26 4.11792e-07

*RES
1 *484:26 *795:B 1.4
2 *484:25 *484:26 0.0021428
3 *484:24 *484:25 0.475703
4 *484:22 *484:24 1.4
5 *484:21 *775:C0 1.4
6 *484:19 *484:22 1.61568
7 *484:17 *484:21 4.47418
8 *484:16 *801:Y 1.4
9 *484:15 *484:19 1.4
10 *484:14 *784:B1 1.4
11 *484:13 *484:17 1.4
12 *484:12 *484:16 0.0342849
13 *484:12 *484:15 0.621413
14 *484:11 *484:14 1.4
15 *484:11 *484:13 0.372849
16 *484:10 *484:12 2.11281
17 *484:9 *484:11 2.11281
18 *484:9 *484:10 1.4
19 *484:7 *484:9 0.745698
20 *484:6 *792:B1 1.4
21 *484:6 *484:7 1.4
22 *484:5 *484:6 0.248565
23 *484:4 *484:5 1.4
24 *484:3 *484:4 1.4914
25 *484:2 *484:3 1.4
26 *484:1 *484:2 0.248565
27 *793:B1 *484:1 1.4
*END

*D_NET *485 0.00294989

*CONN
*I *795:A I *C 30.015 73.225 *L 0.0017 *D MXI2XL
*I *797:B I *C 30.885 75.835 *L 0.00167 *D NAND2XL
*I *801:A I *C 32.915 70.325 *L 0.00273 *D CLKINVX1
*I *782:A1 I *C 34.655 73.225 *L 0.00267 *D OAI31X1
*I *799:B I *C 35.815 70.615 *L 0.00167 *D NAND2XL
*I *803:Y O *C 34.075 68.875 *L 0 *D NOR2X1

*CAP
1 *485:1 4.77679e-05
2 *485:2 4.77679e-05
3 *485:3 4.72991e-05
4 *485:4 4.72991e-05
5 *485:5 0.000262724
6 *485:6 0.000167188
7 *485:7 9.55358e-05
8 *485:8 2.36495e-05
9 *485:9 0.000189196
10 *485:10 2.36495e-05
11 *485:11 0.000331093
12 *485:13 0.000165547
13 *485:14 0.000191072
14 *485:16 2.36495e-05
15 *485:17 4.77679e-05
16 *485:18 0.000191072
17 *485:19 0.000143304
18 *485:20 4.77679e-05
19 *485:22 0.000143304
20 *485:24 2.36495e-05
21 *485:25 7.09486e-05
22 *485:26 4.72991e-05
23 *485:27 0.000167188
24 *485:28 2.3884e-05
25 *485:29 0.000167188
26 *485:30 2.3884e-05
27 *485:31 9.45981e-05
28 *485:33 9.45981e-05

*RES
1 *485:34 *803:Y 1.4
2 *485:33 *485:34 1.4
3 *485:31 *485:33 0.497132
4 *485:30 *799:B 1.4
5 *485:29 *485:31 1.4
6 *485:28 *485:30 0.124283
7 *485:27 *485:29 0.869979
8 *485:26 *485:28 1.4
9 *485:25 *485:27 1.4
10 *485:25 *485:26 0.248566
11 *485:24 *485:25 0.124283
12 *485:22 *485:24 1.4
13 *485:20 *782:A1 1.4
14 *485:19 *485:22 0.745696
15 *485:18 *801:A 1.4
16 *485:17 *485:20 0.248565
17 *485:16 *485:19 1.4
18 *485:14 *485:18 0.994261
19 *485:13 *485:17 1.4
20 *485:13 *485:16 0.124283
21 *485:12 *797:B 1.4
22 *485:11 *485:14 1.4
23 *485:11 *485:13 0.745698
24 *485:10 *485:12 1.4
25 *485:9 *485:11 0.994263
26 *485:8 *485:10 0.124283
27 *485:7 *485:9 1.4
28 *485:6 *485:8 1.4
29 *485:5 *485:7 0.497131
30 *485:5 *485:6 0.869979
31 *485:4 *485:5 1.4
32 *485:3 *485:4 0.248566
33 *485:2 *485:3 1.4
34 *485:1 *485:2 0.248565
35 *795:A *485:1 1.4
*END

*D_NET *486 0.0049463

*CONN
*I *793:A1 I *C 26.535 65.395 *L 0.00162 *D OAI222XL
*I *792:A1 I *C 31.755 65.395 *L 0.00162 *D OAI222XL
*I *833:AN I *C 31.755 70.325 *L 0.00178 *D NAND2BX1
*I *800:Y O *C 34.655 64.815 *L 0 *D NAND2XL
*I *778:A1 I *C 38.135 70.615 *L 0.00278 *D OAI211X1
*I *784:A1 I *C 38.425 65.395 *L 0.00162 *D OAI222XL
*I *775:A0 I *C 36.685 75.545 *L 0.00163 *D OAI222XL

*CAP
1 *486:1 2.3884e-05
2 *486:2 2.3884e-05
3 *486:3 0.000425691
4 *486:4 0.000425691
5 *486:5 7.16519e-05
6 *486:6 0.000382143
7 *486:7 2.3884e-05
8 *486:8 7.09486e-05
9 *486:9 0.000334375
10 *486:11 7.09486e-05
11 *486:13 4.77679e-05
12 *486:14 4.77679e-05
13 *486:15 0.000165547
14 *486:16 0.000449341
15 *486:17 0.000307444
16 *486:18 7.16519e-05
17 *486:19 2.36495e-05
18 *486:20 0.000406027
19 *486:21 7.16519e-05
20 *486:22 2.3884e-05
21 *486:23 0.000788171
22 *486:25 2.3884e-05
23 *486:26 0.000382143
24 *486:29 0.000118248
25 *486:30 0.000118248
26 *486:31 2.3884e-05
27 *486:32 2.3884e-05

*RES
1 *486:32 *775:A0 1.4
2 *486:31 *486:32 0.124283
3 *486:30 *486:31 1.4
4 *486:29 *486:30 0.621415
5 *486:26 *486:29 1.4
6 *486:25 *784:A1 1.4
7 *486:23 *778:A1 1.4
8 *486:23 *486:26 1.98852
9 *486:22 *486:25 0.124283
10 *486:21 *800:Y 1.4
11 *486:20 *486:23 2.11281
12 *486:19 *486:22 1.4
13 *486:18 *486:21 0.372848
14 *486:17 *486:20 1.4
15 *486:17 *486:19 0.124283
16 *486:16 *486:18 1.4
17 *486:16 *486:17 1.4914
18 *486:15 *486:16 0.869981
19 *486:14 *486:15 1.4
20 *486:13 *486:14 0.248565
21 *486:11 *486:13 1.4
22 *486:9 *833:AN 1.4
23 *486:8 *486:11 0.372849
24 *486:7 *792:A1 1.4
25 *486:6 *486:9 1.73996
26 *486:6 *486:8 1.4
27 *486:5 *486:7 0.124283
28 *486:5 *486:6 0.248565
29 *486:4 *486:5 1.4
30 *486:3 *486:4 2.23709
31 *486:2 *486:3 1.4
32 *486:1 *486:2 0.124283
33 *793:A1 *486:1 1.4
*END

*D_NET *487 0.000521227

*CONN
*I *778:B0 I *C 38.425 70.615 *L 0.0028 *D OAI211X1
*I *799:Y O *C 35.815 70.035 *L 0 *D NAND2XL

*CAP
1 *487:1 4.77679e-05
2 *487:2 4.77679e-05
3 *487:3 0.000212846
4 *487:4 0.000212846

*RES
1 *487:5 *799:Y 1.4
2 *487:4 *487:5 1.4
3 *487:3 *487:4 1.11855
4 *487:2 *487:3 1.4
5 *487:1 *487:2 0.248565
6 *778:B0 *487:1 1.4
*END

*D_NET *488 0.000381675

*CONN
*I *789:B0 I *C 31.175 73.225 *L 0.0028 *D OAI211X1
*I *797:Y O *C 30.885 75.255 *L 0 *D NAND2XL

*CAP
1 *488:1 0.000167188
2 *488:2 0.000167188
3 *488:3 2.36495e-05
4 *488:4 2.36495e-05

*RES
1 *488:5 *797:Y 1.4
2 *488:4 *488:5 1.4
3 *488:3 *488:4 0.124283
4 *488:2 *488:3 1.4
5 *488:1 *488:2 0.869979
6 *789:B0 *488:1 1.4
*END

*D_NET *489 0.00162036

*CONN
*I *787:B I *C 43.935 73.225 *L 0.00167 *D NAND2XL
*I *783:A1 I *C 41.905 70.615 *L 0.00278 *D OAI211X1
*I *798:Y O *C 41.615 65.685 *L 0 *D NOR2XL

*CAP
1 *489:1 0.000143304
2 *489:2 0.000143304
3 *489:3 0.000165547
4 *489:4 0.000165547
5 *489:5 7.16519e-05
6 *489:6 0.000477679
7 *489:8 0.000406027
8 *489:9 2.36495e-05
9 *489:10 2.36495e-05

*RES
1 *489:11 *798:Y 1.4
2 *489:10 *489:11 1.4
3 *489:9 *489:10 0.124283
4 *489:8 *489:9 1.4
5 *489:6 *489:8 2.11281
6 *489:6 *783:A1 1.4
7 *489:5 *489:6 0.372848
8 *489:4 *489:5 1.4
9 *489:3 *489:4 0.869981
10 *489:2 *489:3 1.4
11 *489:1 *489:2 0.745696
12 *787:B *489:1 1.4
*END

*D_NET *490 0.000761942

*CONN
*I *784:C0 I *C 36.975 65.395 *L 0.00167 *D OAI222XL
*I *796:Y O *C 38.425 68.585 *L 0 *D MXI2XL

*CAP
1 *490:1 0.000262724
2 *490:2 0.000262724
3 *490:3 0.000118248
4 *490:4 0.000118248

*RES
1 *490:5 *796:Y 1.4
2 *490:4 *490:5 1.4
3 *490:3 *490:4 0.621415
4 *490:2 *490:3 1.4
5 *490:1 *490:2 1.36711
6 *784:C0 *490:1 1.4
*END

*D_NET *491 0.000617701

*CONN
*I *790:D I *C 27.695 75.545 *L 0.00289 *D SDFFRHQX4
*I *795:Y O *C 29.725 73.805 *L 0 *D MXI2XL

*CAP
1 *491:2 7.09486e-05
2 *491:3 7.09486e-05
3 *491:4 0.000143304
4 *491:5 0.000143304
5 *491:6 9.45981e-05
6 *491:7 9.45981e-05

*RES
1 *491:8 *795:Y 1.4
2 *491:7 *491:8 1.4
3 *491:6 *491:7 0.497132
4 *491:5 *491:6 1.4
5 *491:4 *491:5 0.745696
6 *491:3 *491:4 1.4
7 *491:2 *491:3 0.372849
8 *491:1 *491:2 1.4
9 *790:D *491:1 1.4
*END

*D_NET *492 0.000428505

*CONN
*I *782:A2 I *C 34.945 73.515 *L 0.00279 *D OAI31X1
*I *794:Y O *C 34.655 75.255 *L 0 *D NAND2XL

*CAP
1 *492:2 2.36495e-05
2 *492:3 2.36495e-05
3 *492:4 0.000143304
4 *492:5 0.000143304
5 *492:6 4.72991e-05
6 *492:7 4.72991e-05

*RES
1 *492:8 *794:Y 1.4
2 *492:7 *492:8 1.4
3 *492:6 *492:7 0.248566
4 *492:5 *492:6 1.4
5 *492:4 *492:5 0.745696
6 *492:3 *492:4 1.4
7 *492:2 *492:3 0.124283
8 *492:1 *492:2 1.4
9 *782:A2 *492:1 1.4
*END

*D_NET *493 0.000524041

*CONN
*I *786:D I *C 26.245 68.295 *L 0.0028 *D SDFFRHQX2
*I *793:Y O *C 27.115 65.975 *L 0 *D OAI222XL

*CAP
1 *493:2 2.36495e-05
2 *493:3 2.36495e-05
3 *493:4 0.000191072
4 *493:5 0.000191072
5 *493:6 4.72991e-05
6 *493:7 4.72991e-05

*RES
1 *493:8 *793:Y 1.4
2 *493:7 *493:8 1.4
3 *493:6 *493:7 0.248566
4 *493:5 *493:6 1.4
5 *493:4 *493:5 0.994261
6 *493:3 *493:4 1.4
7 *493:2 *493:3 0.124283
8 *493:1 *493:2 1.4
9 *786:D *493:1 1.4
*END

*D_NET *494 0.00243714

*CONN
*I *788:D I *C 22.475 59.885 *L 0.0028 *D SDFFRHQX2
*I *792:Y O *C 31.175 65.975 *L 0 *D OAI222XL

*CAP
1 *494:2 0.000693357
2 *494:3 0.000693357
3 *494:4 0.000501563
4 *494:5 0.000501563
5 *494:6 2.36495e-05
6 *494:7 2.36495e-05

*RES
1 *494:8 *792:Y 1.4
2 *494:7 *494:8 1.4
3 *494:6 *494:7 0.124283
4 *494:5 *494:6 1.4
5 *494:4 *494:5 2.60994
6 *494:3 *494:4 1.4
7 *494:2 *494:3 3.85277
8 *494:1 *494:2 1.4
9 *788:D *494:1 1.4
*END

*D_NET *495 0.000510918

*CONN
*I *775:A1 I *C 36.975 75.835 *L 0.00162 *D OAI222XL
*I *791:Y O *C 36.975 79.025 *L 0 *D MXI2XL

*CAP
1 *495:1 0.000255459
2 *495:2 0.000255459

*RES
1 *495:2 *791:Y 1.4
2 *495:1 *495:2 1.36711
3 *775:A1 *495:1 1.4
*END

*D_NET *496 0.00166624

*CONN
*I *785:D I *C 20.445 73.515 *L 0.0028 *D SDFFRHQX2
*I *789:Y O *C 30.595 72.645 *L 0 *D OAI211X1

*CAP
1 *496:1 4.3559e-05
2 *496:2 4.3559e-05
3 *496:3 0.000765679
4 *496:4 0.000765679
5 *496:5 2.3884e-05
6 *496:6 2.3884e-05

*RES
1 *496:6 *789:Y 1.4
2 *496:5 *496:6 0.124283
3 *496:4 *496:5 1.4
4 *496:3 *496:4 4.34991
5 *496:2 *496:3 1.4
6 *496:1 *496:2 0.248565
7 *785:D *496:1 1.4
*END

*D_NET *497 0.00199913

*CONN
*I *783:C0 I *C 41.325 70.035 *L 0.00287 *D OAI211X1
*I *780:S0 I *C 41.615 78.445 *L 0.00372 *D MXI2XL
*I *779:A2 I *C 41.615 73.225 *L 0.00171 *D OAI31XL
*I *787:Y O *C 43.935 73.805 *L 0 *D NAND2XL

*CAP
1 *497:1 0.000334375
2 *497:2 0.000334375
3 *497:3 2.36495e-05
4 *497:4 0.000212846
5 *497:5 0.000189196
6 *497:6 0.000428458
7 *497:7 2.3884e-05
8 *497:8 0.000356807
9 *497:9 7.16519e-05
10 *497:10 2.3884e-05

*RES
1 *497:10 *787:Y 1.4
2 *497:9 *779:A2 1.4
3 *497:8 *780:S0 1.4
4 *497:7 *497:10 0.124283
5 *497:6 *497:9 0.372848
6 *497:6 *497:8 1.86424
7 *497:5 *497:7 1.4
8 *497:4 *497:6 1.4
9 *497:4 *497:5 0.994263
10 *497:3 *497:4 0.124283
11 *497:2 *497:3 1.4
12 *497:1 *497:2 1.73996
13 *783:C0 *497:1 1.4
*END

*D_NET *498 0.00113987

*CONN
*I *781:D I *C 41.905 63.075 *L 0.0028 *D SDFFRHQX2
*I *784:Y O *C 37.845 65.975 *L 0 *D OAI222XL

*CAP
1 *498:1 2.3884e-05
2 *498:2 2.3884e-05
3 *498:3 0.000331093
4 *498:4 0.000331093
5 *498:5 0.000214956
6 *498:6 0.000214956

*RES
1 *498:6 *784:Y 1.4
2 *498:5 *498:6 1.11854
3 *498:4 *498:5 1.4
4 *498:3 *498:4 1.73996
5 *498:2 *498:3 1.4
6 *498:1 *498:2 0.124283
7 *781:D *498:1 1.4
*END

*D_NET *499 0.000569464

*CONN
*I *778:C0 I *C 38.715 70.035 *L 0.00287 *D OAI211X1
*I *783:Y O *C 41.035 71.195 *L 0 *D OAI211X1

*CAP
1 *499:1 7.16519e-05
2 *499:2 7.16519e-05
3 *499:3 0.000189196
4 *499:4 0.000189196
5 *499:5 2.3884e-05
6 *499:6 2.3884e-05

*RES
1 *499:6 *783:Y 1.4
2 *499:5 *499:6 0.124283
3 *499:4 *499:5 1.4
4 *499:3 *499:4 0.994263
5 *499:2 *499:3 1.4
6 *499:1 *499:2 0.372848
7 *778:C0 *499:1 1.4
*END

*D_NET *500 0.00108835

*CONN
*I *779:B0 I *C 41.905 73.515 *L 0.00168 *D OAI31XL
*I *782:Y O *C 35.525 73.805 *L 0 *D OAI31X1

*CAP
1 *500:2 0.00052029
2 *500:3 0.00052029
3 *500:4 2.3884e-05
4 *500:5 2.3884e-05

*RES
1 *500:5 *782:Y 1.4
2 *500:4 *500:5 0.124283
3 *500:3 *500:4 1.4
4 *500:2 *500:3 2.73422
5 *500:1 *500:2 1.4
6 *779:B0 *500:1 1.4
*END

*D_NET *501 0.00112674

*CONN
*I *775:B1 I *C 37.845 75.835 *L 0.00164 *D OAI222XL
*I *780:Y O *C 41.035 79.025 *L 0 *D MXI2XL

*CAP
1 *501:1 2.3884e-05
2 *501:2 2.3884e-05
3 *501:3 0.000260145
4 *501:4 0.000260145
5 *501:5 0.000279343
6 *501:6 0.000279343

*RES
1 *501:6 *780:Y 1.4
2 *501:5 *501:6 1.49139
3 *501:4 *501:5 1.4
4 *501:3 *501:4 1.36711
5 *501:2 *501:3 1.4
6 *501:1 *501:2 0.124283
7 *775:B1 *501:1 1.4
*END

*D_NET *502 0.00160977

*CONN
*I *777:D I *C 45.675 78.735 *L 0.00276 *D SDFFRHQX1
*I *779:Y O *C 42.195 72.935 *L 0 *D OAI31XL

*CAP
1 *502:1 0.000497205
2 *502:2 0.000497205
3 *502:3 0.000283794
4 *502:4 0.000283794
5 *502:5 2.3884e-05
6 *502:6 2.3884e-05

*RES
1 *502:6 *779:Y 1.4
2 *502:5 *502:6 0.124283
3 *502:4 *502:5 1.4
4 *502:3 *502:4 1.4914
5 *502:2 *502:3 1.4
6 *502:1 *502:2 2.60994
7 *777:D *502:1 1.4
*END

*D_NET *503 0.00109257

*CONN
*I *776:D I *C 42.775 68.295 *L 0.0028 *D SDFFRHQX2
*I *778:Y O *C 39.005 71.195 *L 0 *D OAI211X1

*CAP
1 *503:2 0.000307444
2 *503:3 0.000307444
3 *503:4 0.00023884
4 *503:5 0.00023884

*RES
1 *503:5 *778:Y 1.4
2 *503:4 *503:5 1.24283
3 *503:3 *503:4 1.4
4 *503:2 *503:3 1.61568
5 *503:1 *503:2 1.4
6 *776:D *503:1 1.4
*END

*D_NET *504 0.00212986

*CONN
*I *774:D I *C 49.735 75.545 *L 0.0028 *D SDFFRHQX2
*I *775:Y O *C 37.555 76.415 *L 0 *D OAI222XL

*CAP
1 *504:1 4.77679e-05
2 *504:2 4.77679e-05
3 *504:3 0.00099328
4 *504:4 0.00099328
5 *504:5 2.3884e-05
6 *504:6 2.3884e-05

*RES
1 *504:6 *775:Y 1.4
2 *504:5 *504:6 0.124283
3 *504:4 *504:5 1.4
4 *504:3 *504:4 5.21988
5 *504:2 *504:3 1.4
6 *504:1 *504:2 0.248565
7 *774:D *504:1 1.4
*END

*D_NET *505 0.00335316

*CONN
*I *836:A I *C 63.655 78.735 *L 0.00162 *D NOR2XL
*I *837:B0 I *C 80.765 78.445 *L 0.00277 *D AOI21X1
*I *840:A I *C 60.755 78.445 *L 0.0017 *D MX2X1
*I *838:Y O *C 83.955 79.025 *L 0 *D AOI211X1

*CAP
1 *505:1 2.10083e-05
2 *505:2 2.10083e-05
3 *505:3 0.00143592
4 *505:4 0.00140803
5 *505:5 0.00021362
6 *505:6 0.000185733
7 *505:9 3.39165e-05
8 *505:12 3.39165e-05

*RES
1 *505:12 *838:Y 1.4
2 *505:9 *505:12 0.248575
3 *505:8 *840:A 1.4
4 *505:7 *837:B0 1.4
5 *505:6 *505:9 1.4
6 *505:5 *505:8 1.4
7 *505:4 *505:7 1.4
8 *505:4 *505:6 1.36711
9 *505:3 *505:5 1.24283
10 *505:3 *505:4 7.3327
11 *505:2 *505:3 1.4
12 *505:1 *505:2 0.124289
13 *836:A *505:1 1.4
*END

*D_NET *506 0.00288887

*CONN
*I *840:S0 I *C 61.045 78.155 *L 0.00371 *D MX2X1
*I *837:Y O *C 80.185 78.735 *L 0 *D AOI21X1
*I *836:B I *C 63.365 78.445 *L 0.00171 *D NOR2XL

*CAP
1 *506:1 4.26342e-05
2 *506:2 4.26342e-05
3 *506:3 0.000170896
4 *506:4 0.00138079
5 *506:5 0.00120989
6 *506:6 2.10083e-05
7 *506:8 2.10083e-05

*RES
1 *506:8 *836:B 1.4
2 *506:7 *837:Y 1.4
3 *506:6 *506:8 0.124289
4 *506:5 *506:7 1.4
5 *506:4 *506:6 1.4
6 *506:4 *506:5 7.20841
7 *506:3 *506:4 0.994264
8 *506:2 *506:3 1.4
9 *506:1 *506:2 0.248574
10 *840:S0 *506:1 1.4
*END

*D_NET *507 0.00255665

*CONN
*I *835:D I *C 51.475 83.955 *L 0.00276 *D SDFFRHQX1
*I *836:Y O *C 63.075 78.155 *L 0 *D NOR2XL

*CAP
1 *507:2 0.000768698
2 *507:3 0.000768698
3 *507:4 0.000420783
4 *507:5 0.000420783
5 *507:6 8.88413e-05
6 *507:7 8.88413e-05

*RES
1 *507:8 *836:Y 1.4
2 *507:7 *507:8 1.4
3 *507:6 *507:7 0.497132
4 *507:5 *507:6 1.4
5 *507:4 *507:5 2.48577
6 *507:3 *507:4 1.4
7 *507:2 *507:3 4.47419
8 *507:1 *507:2 1.4
9 *835:D *507:1 1.4
*END

*D_NET *508 0.000576899

*CONN
*I *839:D I *C 58.145 75.545 *L 0.00276 *D SDFFRHQX1
*I *840:Y O *C 59.015 78.445 *L 0 *D MX2X1

*CAP
1 *508:1 4.44873e-05
2 *508:2 4.44873e-05
3 *508:3 6.6631e-05
4 *508:4 6.6631e-05
5 *508:5 0.000177331
6 *508:6 0.000177331

*RES
1 *508:6 *840:Y 1.4
2 *508:5 *508:6 0.994264
3 *508:4 *508:5 1.4
4 *508:3 *508:4 0.372849
5 *508:2 *508:3 1.4
6 *508:1 *508:2 0.248565
7 *839:D *508:1 1.4
*END

*D_NET *509 0.000337196

*CONN
*I *852:A0 I *C 61.625 16.095 *L 0.00265 *D AOI21X1
*I *855:Y O *C 63.5725 15.805 *L 0 *D INVXL

*CAP
1 *509:2 0.000141392
2 *509:3 0.000141392
3 *509:4 2.1324e-05
4 *509:5 2.72064e-05
5 *509:6 5.88247e-06

*RES
1 *509:6 *855:Y 1.4
2 *509:5 *509:6 0.0342849
3 *509:4 *509:5 0.124283
4 *509:3 *509:4 1.4
5 *509:2 *509:3 0.870018
6 *509:1 *509:2 1.4
7 *852:A0 *509:1 1.4
*END

*D_NET *510 0.000868924

*CONN
*I *850:B I *C 17.545 21.315 *L 0.00284 *D NAND2BX1
*I *854:Y O *C 16.965 18.705 *L 0 *D NOR2XL
*I *851:B I *C 18.705 18.125 *L 0.00168 *D NAND2BXL

*CAP
1 *510:2 5.82293e-05
2 *510:3 5.82293e-05
3 *510:4 0.000173183
4 *510:5 0.000238126
5 *510:6 9.70488e-05
6 *510:7 6.49435e-05
7 *510:8 9.70488e-05
8 *510:9 1.94098e-05
9 *510:10 2.16478e-05
10 *510:11 1.94098e-05
11 *510:12 2.16478e-05

*RES
1 *510:13 *851:B 1.4
2 *510:12 *854:Y 1.4
3 *510:11 *510:13 1.4
4 *510:10 *510:12 0.124288
5 *510:9 *510:11 0.124289
6 *510:8 *510:10 1.4
7 *510:7 *510:9 1.4
8 *510:6 *510:8 0.621444
9 *510:5 *510:7 0.372864
10 *510:5 *510:6 1.4
11 *510:4 *510:5 0.994305
12 *510:3 *510:4 1.4
13 *510:2 *510:3 0.372866
14 *510:1 *510:2 1.4
15 *850:B *510:1 1.4
*END

*D_NET *511 0.00373325

*CONN
*I *842:B0 I *C 37.845 18.125 *L 0.00165 *D AO22X1
*I *853:Y O *C 63.655 17.835 *L 0 *D NOR3X1

*CAP
1 *511:3 2.15241e-05
2 *511:4 2.15241e-05
3 *511:5 0.0018451
4 *511:6 0.0018451

*RES
1 *511:9 *853:Y 1.4
2 *511:8 *511:9 1.4
3 *511:7 *511:8 1.4
4 *511:6 *511:7 1.4
5 *511:5 *511:6 11.0617
6 *511:4 *511:5 1.4
7 *511:3 *511:4 0.124288
8 *511:2 *511:3 1.4
9 *511:1 *511:2 1.4
10 *842:B0 *511:1 1.4
*END

*D_NET *512 0.000341183

*CONN
*I *845:A1 I *C 60.465 18.415 *L 0.00274 *D OAI21X1
*I *852:Y O *C 60.465 16.095 *L 0 *D AOI21X1

*CAP
1 *512:1 0.000170592
2 *512:2 0.000170592

*RES
1 *512:2 *852:Y 1.4
2 *512:1 *512:2 0.994261
3 *845:A1 *512:1 1.4
*END

*D_NET *513 0.000323985

*CONN
*I *848:A2 I *C 20.445 18.125 *L 0.00276 *D AOI31X1
*I *851:Y O *C 18.995 17.835 *L 0 *D NAND2BXL

*CAP
1 *513:1 4.32957e-05
2 *513:2 4.32957e-05
3 *513:3 9.70488e-05
4 *513:4 9.70488e-05
5 *513:5 2.16478e-05
6 *513:6 2.16478e-05

*RES
1 *513:6 *851:Y 1.4
2 *513:5 *513:6 0.124288
3 *513:4 *513:5 1.4
4 *513:3 *513:4 0.621444
5 *513:2 *513:3 1.4
6 *513:1 *513:2 0.248576
7 *848:A2 *513:1 1.4
*END

*D_NET *514 0.000358328

*CONN
*I *849:A1 I *C 19.575 21.315 *L 0.00279 *D AOI211X1
*I *850:Y O *C 17.545 21.895 *L 0 *D NAND2BX1

*CAP
1 *514:2 0.000135868
2 *514:3 0.000135868
3 *514:4 4.32957e-05
4 *514:5 4.32957e-05

*RES
1 *514:5 *850:Y 1.4
2 *514:4 *514:5 0.248576
3 *514:3 *514:4 1.4
4 *514:2 *514:3 0.870021
5 *514:1 *514:2 1.4
6 *849:A1 *514:1 1.4
*END

*D_NET *515 0.00133476

*CONN
*I *846:B I *C 25.375 18.125 *L 0.00175 *D NOR2BXL
*I *849:Y O *C 19.865 21.605 *L 0 *D AOI211X1

*CAP
1 *515:2 1.94098e-05
2 *515:3 1.94098e-05
3 *515:4 0.000259774
4 *515:5 0.000259774
5 *515:6 0.000388195
6 *515:7 0.000388195

*RES
1 *515:8 *849:Y 1.4
2 *515:7 *515:8 1.4
3 *515:6 *515:7 2.48577
4 *515:5 *515:6 1.4
5 *515:4 *515:5 1.49146
6 *515:3 *515:4 1.4
7 *515:2 *515:3 0.124289
8 *515:1 *515:2 1.4
9 *846:B *515:1 1.4
*END

*D_NET *516 0.00183866

*CONN
*I *847:C I *C 32.625 18.125 *L 0.00289 *D NAND3BX1
*I *844:A I *C 28.855 18.415 *L 0.0017 *D MXI2XL
*I *848:Y O *C 20.445 17.835 *L 0 *D AOI31X1

*CAP
1 *516:1 2.15241e-05
2 *516:2 2.15241e-05
3 *516:3 0.000275034
4 *516:4 0.000854511
5 *516:6 0.000579477
6 *516:8 4.32957e-05
7 *516:9 4.32957e-05

*RES
1 *516:9 *848:Y 1.4
2 *516:8 *516:9 0.248576
3 *516:6 *516:8 1.4
4 *516:5 *844:A 1.4
5 *516:4 *516:6 3.60437
6 *516:4 *516:5 1.4
7 *516:3 *516:4 1.61575
8 *516:2 *516:3 1.4
9 *516:1 *516:2 0.124288
10 *847:C *516:1 1.4
*END

*D_NET *517 0.00413164

*CONN
*I *845:B0 I *C 61.045 18.125 *L 0.0028 *D OAI21X1
*I *847:Y O *C 32.915 18.705 *L 0 *D NAND3BX1

*CAP
1 *517:1 2.1324e-05
2 *517:2 2.1324e-05
3 *517:3 0.00202297
4 *517:4 0.00202297
5 *517:5 2.15241e-05
6 *517:6 2.15241e-05

*RES
1 *517:6 *847:Y 1.4
2 *517:5 *517:6 0.124288
3 *517:4 *517:5 1.4
4 *517:3 *517:4 12.056
5 *517:2 *517:3 1.4
6 *517:1 *517:2 0.124283
7 *845:B0 *517:1 1.4
*END

*D_NET *518 0.000356594

*CONN
*I *844:B I *C 27.69 18.755 *L 0.00164 *D MXI2XL
*I *846:Y O *C 25.63 18.355 *L 0 *D NOR2BXL

*CAP
1 *518:1 3.71105e-07
2 *518:2 4.08215e-06
3 *518:3 3.71105e-06
4 *518:4 0.000145475
5 *518:5 0.000145475
6 *518:6 2.61267e-05
7 *518:7 2.87394e-05
8 *518:8 2.61267e-06

*RES
1 *518:8 *846:Y 1.4
2 *518:7 *518:8 0.0150003
3 *518:6 *518:7 0.150003
4 *518:5 *518:6 1.4
5 *518:4 *518:5 0.870019
6 *518:3 *518:4 1.4
7 *518:2 *518:3 0.021429
8 *518:1 *518:2 0.0021429
9 *844:B *518:1 1.4
*END

*D_NET *519 0.00112224

*CONN
*I *843:D I *C 63.945 21.315 *L 0.00276 *D SDFFRHQX1
*I *845:Y O *C 61.335 17.835 *L 0 *D OAI21X1

*CAP
1 *519:1 2.1324e-05
2 *519:2 2.1324e-05
3 *519:3 0.000222187
4 *519:4 0.000222187
5 *519:5 0.000277211
6 *519:6 0.000277211
7 *519:7 4.03976e-05
8 *519:8 4.03976e-05

*RES
1 *519:9 *845:Y 1.4
2 *519:8 *519:9 1.4
3 *519:7 *519:8 0.248577
4 *519:6 *519:7 1.4
5 *519:5 *519:6 1.61567
6 *519:4 *519:5 1.4
7 *519:3 *519:4 1.36717
8 *519:2 *519:3 1.4
9 *519:1 *519:2 0.124283
10 *843:D *519:1 1.4
*END

*D_NET *520 0.00122781

*CONN
*I *842:A1 I *C 36.685 18.125 *L 0.00163 *D AO22X1
*I *844:Y O *C 28.565 17.835 *L 0 *D MXI2XL

*CAP
1 *520:1 2.15241e-05
2 *520:2 2.15241e-05
3 *520:3 0.000592381
4 *520:4 0.000592381

*RES
1 *520:5 *844:Y 1.4
2 *520:4 *520:5 1.4
3 *520:3 *520:4 3.48007
4 *520:2 *520:3 1.4
5 *520:1 *520:2 0.124288
6 *842:A1 *520:1 1.4
*END

*D_NET *521 0.000901071

*CONN
*I *841:D I *C 37.555 23.345 *L 0.00276 *D SDFFRHQX1
*I *842:Y O *C 38.715 18.415 *L 0 *D AO22X1

*CAP
1 *521:1 4.30482e-05
2 *521:2 4.30482e-05
3 *521:3 8.46259e-05
4 *521:4 8.46259e-05
5 *521:5 0.000322861
6 *521:6 0.000322861

*RES
1 *521:6 *842:Y 1.4
2 *521:5 *521:6 1.86433
3 *521:4 *521:5 1.4
4 *521:3 *521:4 0.497153
5 *521:2 *521:3 1.4
6 *521:1 *521:2 0.248577
7 *841:D *521:1 1.4
*END

