*SPEF "IEEE 1481-1998"
*DESIGN "HA"
*DATE "Tue Nov 18 23:44:42 2025"
*VENDOR "Cadence Design Systems, Inc."
*PROGRAM "Innovus"
*VERSION "20.10-p004_1"
*DESIGN_FLOW "PIN_CAP NONE" "NAME_SCOPE LOCAL"
*DIVIDER /
*DELIMITER :
*BUS_DELIMITER []
*T_UNIT 1 NS
*C_UNIT 1 PF
*R_UNIT 1 OHM
*L_UNIT 1 HENRY

// MMMC spef file for corner 'default_rc_corner'

*NAME_MAP

*1 SPCASCAN_N7
*2 SPCASCAN_N6
*3 SPCASCAN_N5
*4 SPCASCAN_N4
*5 SPCASCAN_N3
*6 SPCASCAN_N2
*7 SPCASCAN_N1
*8 SPCASCAN_N0
*9 clk
*10 rst_n
*11 motion_sensor
*12 door_sensor
*13 window_sensor
*14 alarm_arm
*15 entry_sensor
*16 exit_sensor
*17 window_auto_mode
*18 window_manual_open
*19 window_manual_close
*20 tv_on_cmd
*21 music_on_cmd
*22 ac_cmd
*23 fan_cmd
*24 light_cmd
*25 door_lock_cmd
*26 door_unlock_cmd
*27 scan_en
*28 DFT_sdi_1
*29 DFT_sdi_2
*30 temp_sensor[7]
*31 temp_sensor[6]
*32 temp_sensor[5]
*33 temp_sensor[4]
*34 temp_sensor[3]
*35 temp_sensor[2]
*36 temp_sensor[1]
*37 temp_sensor[0]
*38 temp_setpoint[7]
*39 temp_setpoint[6]
*40 temp_setpoint[5]
*41 temp_setpoint[4]
*42 temp_setpoint[3]
*43 temp_setpoint[2]
*44 temp_setpoint[1]
*45 temp_setpoint[0]
*46 light_sensor[7]
*47 light_sensor[6]
*48 light_sensor[5]
*49 light_sensor[4]
*50 light_sensor[3]
*51 light_sensor[2]
*52 light_sensor[1]
*53 light_sensor[0]
*54 humidity_sensor[7]
*55 humidity_sensor[6]
*56 humidity_sensor[5]
*57 humidity_sensor[4]
*58 humidity_sensor[3]
*59 humidity_sensor[2]
*60 humidity_sensor[1]
*61 humidity_sensor[0]
*62 water_level[3]
*63 water_level[2]
*64 water_level[1]
*65 water_level[0]
*66 volume_cmd[3]
*67 volume_cmd[2]
*68 volume_cmd[1]
*69 volume_cmd[0]
*70 pin_input[3]
*71 pin_input[2]
*72 pin_input[1]
*73 pin_input[0]
*74 heater_on
*75 cooler_on
*76 water_pump_on
*77 water_valve_close
*78 burglar_alarm_out
*79 tv_on
*80 music_on
*81 ac_on
*82 fan_on
*83 lights_on
*84 door_locked
*85 humidifier_on
*86 dehumidifier_on
*87 DFT_sdo_1
*88 DFT_sdo_2
*89 led_brightness[7]
*90 led_brightness[6]
*91 led_brightness[5]
*92 led_brightness[4]
*93 led_brightness[3]
*94 led_brightness[2]
*95 led_brightness[1]
*96 led_brightness[0]
*97 visitor_count[7]
*98 visitor_count[6]
*99 visitor_count[5]
*100 visitor_count[4]
*101 visitor_count[3]
*102 visitor_count[2]
*103 visitor_count[1]
*104 visitor_count[0]
*105 system_status[7]
*106 system_status[6]
*107 system_status[5]
*108 system_status[4]
*109 system_status[3]
*110 system_status[2]
*111 system_status[1]
*112 system_status[0]
*113 window_state[0]
*114 lock_status[1]
*115 lock_status[0]
*116 volume_level[3]
*117 volume_level[2]
*118 volume_level[1]
*119 volume_level[0]
*120 pin_input_r[3]
*121 pin_input_r[2]
*122 pin_input_r[1]
*123 pin_input_r[0]
*124 lock_status_int[1]
*125 lock_status_int[0]
*126 volume_cmd_r[3]
*127 volume_cmd_r[2]
*128 volume_cmd_r[1]
*129 volume_cmd_r[0]
*130 volume_level_int[3]
*131 volume_level_int[2]
*132 volume_level_int[1]
*133 volume_level_int[0]
*134 humidity_sensor_r[7]
*135 humidity_sensor_r[6]
*136 humidity_sensor_r[5]
*137 humidity_sensor_r[4]
*138 humidity_sensor_r[3]
*139 humidity_sensor_r[2]
*140 humidity_sensor_r[0]
*141 light_sensor_r[7]
*142 light_sensor_r[6]
*143 light_sensor_r[5]
*144 light_sensor_r[4]
*145 light_sensor_r[3]
*146 light_sensor_r[2]
*147 light_sensor_r[1]
*148 light_sensor_r[0]
*149 led_brightness_int[7]
*150 led_brightness_int[6]
*151 led_brightness_int[5]
*152 led_brightness_int[4]
*153 led_brightness_int[3]
*154 led_brightness_int[2]
*155 led_brightness_int[1]
*156 led_brightness_int[0]
*157 temp_sensor_r[7]
*158 temp_sensor_r[6]
*159 temp_sensor_r[5]
*160 temp_sensor_r[4]
*161 temp_sensor_r[3]
*162 temp_sensor_r[2]
*163 temp_sensor_r[1]
*164 temp_sensor_r[0]
*165 temp_setpoint_r[7]
*166 temp_setpoint_r[6]
*167 temp_setpoint_r[5]
*168 temp_setpoint_r[4]
*169 temp_setpoint_r[3]
*170 temp_setpoint_r[2]
*171 temp_setpoint_r[1]
*172 temp_setpoint_r[0]
*173 visitor_count_int[7]
*174 visitor_count_int[6]
*175 visitor_count_int[5]
*176 visitor_count_int[4]
*177 visitor_count_int[3]
*178 visitor_count_int[2]
*179 visitor_count_int[1]
*180 visitor_count_int[0]
*181 water_level_r[3]
*182 water_level_r[2]
*183 water_level_r[1]
*184 water_level_r[0]
*185 window_state_int[1]
*186 window_state_int[0]
*187 ac_cmd_r
*188 ac_on_int
*189 ac_on_r_375
*190 alarm_arm_r
*191 burglar_alarm_out_int
*192 burglar_alarm_out_r_372
*193 cooler_on_int
*194 cooler_on_r_369
*195 dehumidifier_on_int
*196 door_lock_cmd_r
*197 door_locked_int
*198 door_locked_r_378
*199 door_sensor_r
*200 door_unlock_cmd_r
*201 entry_sensor_r
*202 exit_sensor_r
*203 fan_cmd_r
*204 fan_on_int
*205 fan_on_r_376
*206 heater_on_int
*207 heater_on_r_368
*208 humidifier_on_int
*209 light_cmd_r
*210 lights_on_int
*211 lights_on_r_377
*212 motion_sensor_r
*213 music_on_cmd_r
*214 music_on_int
*215 n_0
*216 n_1
*217 n_2
*218 n_3
*219 n_4
*220 n_5
*221 n_6
*222 n_7
*223 n_88
*224 n_89
*225 n_90
*226 n_91
*227 tv_on_cmd_r
*228 tv_on_int
*229 water_pump_on_int
*230 water_pump_on_r_370
*231 water_valve_close_int
*232 window_auto_mode_r
*233 window_manual_close_r
*234 window_manual_open_r
*235 window_sensor_r
*236 u_burglar/delay_counter[7]
*237 u_burglar/delay_counter[6]
*238 u_burglar/delay_counter[5]
*239 u_burglar/delay_counter[4]
*240 u_burglar/delay_counter[3]
*241 u_burglar/delay_counter[2]
*242 u_burglar/n_0
*243 u_burglar/n_1
*244 u_burglar/n_2
*245 u_burglar/n_3
*246 u_burglar/n_4
*247 u_burglar/n_5
*248 u_burglar/n_6
*249 u_burglar/n_7
*250 u_burglar/n_8
*251 u_burglar/n_9
*252 u_burglar/n_10
*253 u_burglar/n_11
*254 u_burglar/n_12
*255 u_burglar/n_13
*256 u_burglar/n_14
*257 u_burglar/n_15
*258 u_burglar/n_16
*259 u_burglar/n_17
*260 u_burglar/n_18
*261 u_burglar/n_19
*262 u_burglar/n_20
*263 u_burglar/n_21
*264 u_burglar/n_22
*265 u_burglar/n_23
*266 u_burglar/n_24
*267 u_burglar/n_25
*268 u_burglar/n_26
*269 u_burglar/n_27
*270 u_burglar/n_29
*271 u_burglar/n_31
*272 u_burglar/n_32
*273 u_burglar/n_33
*274 u_burglar/n_34
*275 u_burglar/n_35
*276 u_burglar/n_36
*277 u_burglar/n_37
*278 u_burglar/n_39
*279 u_burglar/n_46
*280 u_burglar/n_47
*281 u_door_lock/attempt_counter[0]
*282 u_door_lock/state[1]
*283 u_door_lock/state[0]
*284 u_door_lock/timeout_counter[6]
*285 u_door_lock/timeout_counter[5]
*286 u_door_lock/timeout_counter[2]
*287 u_door_lock/n_0
*288 u_door_lock/n_1
*289 u_door_lock/n_2
*290 u_door_lock/n_3
*291 u_door_lock/n_4
*292 u_door_lock/n_5
*293 u_door_lock/n_6
*294 u_door_lock/n_7
*295 u_door_lock/n_8
*296 u_door_lock/n_9
*297 u_door_lock/n_10
*298 u_door_lock/n_11
*299 u_door_lock/n_12
*300 u_door_lock/n_13
*301 u_door_lock/n_14
*302 u_door_lock/n_15
*303 u_door_lock/n_16
*304 u_door_lock/n_17
*305 u_door_lock/n_18
*306 u_door_lock/n_19
*307 u_door_lock/n_20
*308 u_door_lock/n_21
*309 u_door_lock/n_22
*310 u_door_lock/n_23
*311 u_door_lock/n_24
*312 u_door_lock/n_25
*313 u_door_lock/n_26
*314 u_door_lock/n_27
*315 u_door_lock/n_28
*316 u_door_lock/n_29
*317 u_door_lock/n_30
*318 u_door_lock/n_31
*319 u_door_lock/n_32
*320 u_door_lock/n_33
*321 u_door_lock/n_34
*322 u_door_lock/n_35
*323 u_door_lock/n_36
*324 u_door_lock/n_37
*325 u_door_lock/n_38
*326 u_door_lock/n_39
*327 u_door_lock/n_40
*328 u_door_lock/n_41
*329 u_door_lock/n_42
*330 u_door_lock/n_43
*331 u_door_lock/n_44
*332 u_door_lock/n_45
*333 u_door_lock/n_46
*334 u_door_lock/n_47
*335 u_door_lock/n_48
*336 u_door_lock/n_49
*337 u_door_lock/n_50
*338 u_door_lock/n_51
*339 u_door_lock/n_52
*340 u_door_lock/n_53
*341 u_door_lock/n_54
*342 u_door_lock/n_55
*343 u_entertainment/n_0
*344 u_entertainment/n_1
*345 u_entertainment/n_2
*346 u_entertainment/n_3
*347 u_entertainment/n_4
*348 u_humidity/n_0
*349 u_humidity/n_1
*350 u_humidity/n_2
*351 u_humidity/n_3
*352 u_humidity/n_4
*353 u_humidity/n_5
*354 u_lum_ctrl/n_0
*355 u_lum_ctrl/n_1
*356 u_lum_ctrl/n_2
*357 u_lum_ctrl/n_3
*358 u_lum_ctrl/n_4
*359 u_lum_ctrl/n_5
*360 u_lum_ctrl/n_6
*361 u_lum_ctrl/n_7
*362 u_temp_ctrl/n_1
*363 u_temp_ctrl/n_2
*364 u_temp_ctrl/n_3
*365 u_temp_ctrl/n_4
*366 u_temp_ctrl/n_5
*367 u_temp_ctrl/n_6
*368 u_temp_ctrl/n_7
*369 u_temp_ctrl/n_8
*370 u_temp_ctrl/n_10
*371 u_temp_ctrl/n_11
*372 u_temp_ctrl/n_12
*373 u_temp_ctrl/n_13
*374 u_temp_ctrl/n_14
*375 u_temp_ctrl/n_15
*376 u_temp_ctrl/n_16
*377 u_temp_ctrl/n_17
*378 u_temp_ctrl/n_18
*379 u_temp_ctrl/n_19
*380 u_temp_ctrl/n_20
*381 u_temp_ctrl/n_21
*382 u_temp_ctrl/n_22
*383 u_temp_ctrl/n_23
*384 u_temp_ctrl/n_24
*385 u_temp_ctrl/n_25
*386 u_temp_ctrl/n_26
*387 u_temp_ctrl/n_27
*388 u_temp_ctrl/n_28
*389 u_temp_ctrl/n_29
*390 u_temp_ctrl/n_30
*391 u_temp_ctrl/n_31
*392 u_temp_ctrl/n_32
*393 u_temp_ctrl/n_33
*394 u_temp_ctrl/n_35
*395 u_temp_ctrl/n_36
*396 u_temp_ctrl/n_37
*397 u_temp_ctrl/n_39
*398 u_temp_ctrl/n_40
*399 u_temp_ctrl/n_41
*400 u_temp_ctrl/n_42
*401 u_temp_ctrl/n_43
*402 u_temp_ctrl/n_44
*403 u_temp_ctrl/n_45
*404 u_temp_ctrl/n_46
*405 u_temp_ctrl/n_47
*406 u_temp_ctrl/n_48
*407 u_temp_ctrl/n_49
*408 u_temp_ctrl/n_50
*409 u_temp_ctrl/n_51
*410 u_temp_ctrl/n_52
*411 u_temp_ctrl/n_53
*412 u_temp_ctrl/n_54
*413 u_temp_ctrl/n_55
*414 u_temp_ctrl/n_56
*415 u_temp_ctrl/n_57
*416 u_temp_ctrl/n_58
*417 u_temp_ctrl/n_59
*418 u_temp_ctrl/n_60
*419 u_temp_ctrl/n_61
*420 u_temp_ctrl/n_62
*421 u_temp_ctrl/n_63
*422 u_temp_ctrl/n_64
*423 u_temp_ctrl/n_65
*424 u_temp_ctrl/n_66
*425 u_temp_ctrl/n_68
*426 u_temp_ctrl/n_69
*427 u_temp_ctrl/n_70
*428 u_temp_ctrl/n_71
*429 u_temp_ctrl/n_72
*430 u_temp_ctrl/n_73
*431 u_temp_ctrl/n_74
*432 u_temp_ctrl/n_75
*433 u_temp_ctrl/n_76
*434 u_temp_ctrl/n_78
*435 u_temp_ctrl/n_79
*436 u_temp_ctrl/n_80
*437 u_temp_ctrl/n_81
*438 u_temp_ctrl/n_82
*439 u_temp_ctrl/n_83
*440 u_temp_ctrl/n_84
*441 u_temp_ctrl/n_85
*442 u_temp_ctrl/n_86
*443 u_temp_ctrl/n_87
*444 u_temp_ctrl/n_88
*445 u_temp_ctrl/n_89
*446 u_temp_ctrl/n_90
*447 u_temp_ctrl/n_91
*448 u_temp_ctrl/n_92
*449 u_temp_ctrl/n_93
*450 u_temp_ctrl/n_112
*451 u_temp_ctrl/n_113
*452 u_temp_ctrl/n_114
*453 u_visitor/entry_prev
*454 u_visitor/n_0
*455 u_visitor/n_1
*456 u_visitor/n_2
*457 u_visitor/n_3
*458 u_visitor/n_4
*459 u_visitor/n_5
*460 u_visitor/n_6
*461 u_visitor/n_7
*462 u_visitor/n_8
*463 u_visitor/n_9
*464 u_visitor/n_10
*465 u_visitor/n_11
*466 u_visitor/n_12
*467 u_visitor/n_13
*468 u_visitor/n_14
*469 u_visitor/n_15
*470 u_visitor/n_16
*471 u_visitor/n_17
*472 u_visitor/n_18
*473 u_visitor/n_19
*474 u_visitor/n_20
*475 u_visitor/n_21
*476 u_visitor/n_22
*477 u_visitor/n_23
*478 u_visitor/n_24
*479 u_visitor/n_25
*480 u_visitor/n_26
*481 u_visitor/n_27
*482 u_visitor/n_28
*483 u_visitor/n_29
*484 u_visitor/n_30
*485 u_visitor/n_31
*486 u_visitor/n_32
*487 u_visitor/n_33
*488 u_visitor/n_34
*489 u_visitor/n_35
*490 u_visitor/n_36
*491 u_visitor/n_37
*492 u_visitor/n_38
*493 u_visitor/n_39
*494 u_visitor/n_40
*495 u_visitor/n_41
*496 u_visitor/n_42
*497 u_visitor/n_43
*498 u_visitor/n_44
*499 u_visitor/n_45
*500 u_visitor/n_46
*501 u_visitor/n_47
*502 u_visitor/n_48
*503 u_visitor/n_49
*504 u_visitor/n_50
*505 u_water_ctrl/n_2
*506 u_water_ctrl/n_3
*507 u_water_ctrl/n_4
*508 u_water_ctrl/n_13
*509 u_window/n_0
*510 u_window/n_1
*511 u_window/n_2
*512 u_window/n_3
*513 u_window/n_4
*514 u_window/n_5
*515 u_window/n_6
*516 u_window/n_7
*517 u_window/n_8
*518 u_window/n_9
*519 u_window/n_10
*520 u_window/n_11
*521 u_window/n_12
*522 window_state[1]
*523 u_appliances/ac_on_reg
*524 u_appliances/fan_on_reg
*525 u_appliances/lights_on_reg
*526 u_burglar/delay_counter_reg\[6\]
*527 u_burglar/g671
*528 u_burglar/delay_counter_reg\[5\]
*529 u_burglar/delay_counter_reg\[7\]
*530 u_burglar/g675
*531 u_burglar/g676
*532 u_burglar/delay_counter_reg\[3\]
*533 u_burglar/g678
*534 u_burglar/delay_counter_reg\[4\]
*535 u_burglar/g680
*536 u_burglar/g681
*537 u_burglar/delay_counter_reg\[8\]
*538 u_burglar/delay_counter_reg\[2\]
*539 u_burglar/g684
*540 u_burglar/g685
*541 u_burglar/g688
*542 u_burglar/g689
*543 u_burglar/g690
*544 u_burglar/g691
*545 u_burglar/g692
*546 u_burglar/alarm_out_reg
*547 u_burglar/delay_counter_reg\[1\]
*548 u_burglar/g695
*549 u_burglar/delay_counter_reg\[0\]
*550 u_burglar/g697
*551 u_burglar/g698
*552 u_burglar/g699
*553 u_burglar/g700
*554 u_burglar/g701
*555 u_burglar/g702
*556 u_burglar/g703
*557 u_burglar/g704
*558 u_burglar/g705
*559 u_burglar/g706
*560 u_burglar/g707
*561 u_burglar/g709
*562 u_burglar/g710
*563 u_burglar/g711
*564 u_burglar/g713
*565 u_burglar/g714
*566 u_burglar/g715
*567 u_burglar/g716
*568 u_burglar/g717
*569 u_burglar/g718
*570 u_burglar/g719
*571 u_burglar/g720
*572 u_burglar/g2
*573 u_burglar/g721
*574 u_burglar/g3
*575 u_door_lock/door_locked_reg
*576 u_door_lock/lock_status_reg\[1\]
*577 u_door_lock/lock_status_reg\[0\]
*578 u_door_lock/g754
*579 u_door_lock/timeout_counter_reg\[7\]
*580 u_door_lock/timeout_counter_reg\[6\]
*581 u_door_lock/g2229
*582 u_door_lock/g2230
*583 u_door_lock/g2231
*584 u_door_lock/timeout_counter_reg\[5\]
*585 u_door_lock/g2233
*586 u_door_lock/g2234
*587 u_door_lock/g2235
*588 u_door_lock/timeout_counter_reg\[4\]
*589 u_door_lock/g2237
*590 u_door_lock/g2238
*591 u_door_lock/g2239
*592 u_door_lock/g2240
*593 u_door_lock/timeout_counter_reg\[3\]
*594 u_door_lock/g2242
*595 u_door_lock/g2243
*596 u_door_lock/g2244
*597 u_door_lock/g2245
*598 u_door_lock/attempt_counter_reg\[0\]
*599 u_door_lock/attempt_counter_reg\[1\]
*600 u_door_lock/timeout_counter_reg\[1\]
*601 u_door_lock/timeout_counter_reg\[2\]
*602 u_door_lock/state_reg\[1\]
*603 u_door_lock/state_reg\[0\]
*604 u_door_lock/g2252
*605 u_door_lock/g2253
*606 u_door_lock/g2254
*607 u_door_lock/timeout_counter_reg\[0\]
*608 u_door_lock/g2256
*609 u_door_lock/g2257
*610 u_door_lock/g2258
*611 u_door_lock/g2259
*612 u_door_lock/g2260
*613 u_door_lock/g2261
*614 u_door_lock/g2262
*615 u_door_lock/attempt_counter_reg\[2\]
*616 u_door_lock/g2264
*617 u_door_lock/g2265
*618 u_door_lock/g2266
*619 u_door_lock/g2267
*620 u_door_lock/g2268
*621 u_door_lock/g2269
*622 u_door_lock/g2270
*623 u_door_lock/g2271
*624 u_door_lock/g2272
*625 u_door_lock/g2274
*626 u_door_lock/g2275
*627 u_door_lock/g2276
*628 u_door_lock/g2277
*629 u_door_lock/g2279
*630 u_door_lock/g2280
*631 u_door_lock/g2281
*632 u_door_lock/g2283
*633 u_door_lock/g2284
*634 u_door_lock/g2285
*635 u_door_lock/g2286
*636 u_door_lock/g2287
*637 u_door_lock/g2288
*638 u_door_lock/g2289
*639 u_door_lock/g2290
*640 u_door_lock/g2295
*641 u_door_lock/g2296
*642 u_door_lock/g2297
*643 u_door_lock/g2298
*644 u_door_lock/g2299
*645 u_door_lock/g2
*646 u_door_lock/g2300
*647 u_entertainment/tv_on_reg
*648 u_entertainment/music_on_reg
*649 u_entertainment/volume_level_reg\[0\]
*650 u_entertainment/volume_level_reg\[2\]
*651 u_entertainment/volume_level_reg\[1\]
*652 u_entertainment/volume_level_reg\[3\]
*653 u_entertainment/g44
*654 u_entertainment/g45
*655 u_entertainment/g46
*656 u_entertainment/g47
*657 u_entertainment/g48
*658 u_humidity/dehumidifier_on_reg
*659 u_humidity/humidifier_on_reg
*660 u_humidity/g202
*661 u_humidity/g203
*662 u_humidity/g204
*663 u_humidity/g205
*664 u_humidity/g206
*665 u_humidity/g207
*666 u_lum_ctrl/led_brightness_reg\[4\]
*667 u_lum_ctrl/led_brightness_reg\[6\]
*668 u_lum_ctrl/led_brightness_reg\[7\]
*669 u_lum_ctrl/led_brightness_reg\[0\]
*670 u_lum_ctrl/led_brightness_reg\[2\]
*671 u_lum_ctrl/led_brightness_reg\[5\]
*672 u_lum_ctrl/led_brightness_reg\[3\]
*673 u_lum_ctrl/led_brightness_reg\[1\]
*674 u_lum_ctrl/g95
*675 u_lum_ctrl/g96
*676 u_lum_ctrl/g97
*677 u_lum_ctrl/g98
*678 u_lum_ctrl/g99
*679 u_lum_ctrl/g100
*680 u_lum_ctrl/g101
*681 u_lum_ctrl/g102
*682 u_temp_ctrl/cooler_on_reg
*683 u_temp_ctrl/heater_on_reg
*684 u_temp_ctrl/g1630
*685 u_temp_ctrl/g1631
*686 u_temp_ctrl/g1632
*687 u_temp_ctrl/g1633
*688 u_temp_ctrl/g1634
*689 u_temp_ctrl/g1635
*690 u_temp_ctrl/g1636
*691 u_temp_ctrl/g1637
*692 u_temp_ctrl/g1638
*693 u_temp_ctrl/g1639
*694 u_temp_ctrl/g1640
*695 u_temp_ctrl/g1641
*696 u_temp_ctrl/g1642
*697 u_temp_ctrl/g1643
*698 u_temp_ctrl/g1644
*699 u_temp_ctrl/g1645
*700 u_temp_ctrl/g1647
*701 u_temp_ctrl/g1648
*702 u_temp_ctrl/g1649
*703 u_temp_ctrl/g1650
*704 u_temp_ctrl/g1651
*705 u_temp_ctrl/g1653
*706 u_temp_ctrl/g1654
*707 u_temp_ctrl/g1655
*708 u_temp_ctrl/g1657
*709 u_temp_ctrl/g1659
*710 u_temp_ctrl/g1660
*711 u_temp_ctrl/g1661
*712 u_temp_ctrl/g1662
*713 u_temp_ctrl/g1663
*714 u_temp_ctrl/g1664
*715 u_temp_ctrl/g1665
*716 u_temp_ctrl/g1667
*717 u_temp_ctrl/g1668
*718 u_temp_ctrl/g1669
*719 u_temp_ctrl/g1670
*720 u_temp_ctrl/g1671
*721 u_temp_ctrl/g1672
*722 u_temp_ctrl/g1674
*723 u_temp_ctrl/g1675
*724 u_temp_ctrl/g1678
*725 u_temp_ctrl/g1679
*726 u_temp_ctrl/g1680
*727 u_temp_ctrl/g1681
*728 u_temp_ctrl/g1683
*729 u_temp_ctrl/g1684
*730 u_temp_ctrl/g1685
*731 u_temp_ctrl/g1689
*732 u_temp_ctrl/g1690
*733 u_temp_ctrl/g1691
*734 u_temp_ctrl/g1692
*735 u_temp_ctrl/g1694
*736 u_temp_ctrl/g1695
*737 u_temp_ctrl/g1697
*738 u_temp_ctrl/g1698
*739 u_temp_ctrl/g1700
*740 u_temp_ctrl/g1703
*741 u_temp_ctrl/g1704
*742 u_temp_ctrl/g1705
*743 u_temp_ctrl/g1706
*744 u_temp_ctrl/g1707
*745 u_temp_ctrl/g1709
*746 u_temp_ctrl/g1710
*747 u_temp_ctrl/g1711
*748 u_temp_ctrl/g1712
*749 u_temp_ctrl/g1713
*750 u_temp_ctrl/g1714
*751 u_temp_ctrl/g1715
*752 u_temp_ctrl/g1716
*753 u_temp_ctrl/g1717
*754 u_temp_ctrl/g1718
*755 u_temp_ctrl/g1719
*756 u_temp_ctrl/g1720
*757 u_temp_ctrl/g1721
*758 u_temp_ctrl/g1723
*759 u_temp_ctrl/g1724
*760 u_temp_ctrl/g1725
*761 u_temp_ctrl/g1726
*762 u_temp_ctrl/g1728
*763 u_temp_ctrl/g1729
*764 u_temp_ctrl/g1736
*765 u_temp_ctrl/g1737
*766 u_temp_ctrl/g1738
*767 u_temp_ctrl/g1739
*768 u_temp_ctrl/g1740
*769 u_temp_ctrl/g1741
*770 u_temp_ctrl/g1742
*771 u_temp_ctrl/g1743
*772 u_temp_ctrl/g1744
*773 u_temp_ctrl/g1745
*774 u_visitor/count_reg\[6\]
*775 u_visitor/g1045
*776 u_visitor/count_reg\[5\]
*777 u_visitor/count_reg\[7\]
*778 u_visitor/g1048
*779 u_visitor/g1049
*780 u_visitor/g1050
*781 u_visitor/count_reg\[4\]
*782 u_visitor/g1052
*783 u_visitor/g1053
*784 u_visitor/g1054
*785 u_visitor/count_reg\[1\]
*786 u_visitor/count_reg\[2\]
*787 u_visitor/g1057
*788 u_visitor/count_reg\[3\]
*789 u_visitor/g1059
*790 u_visitor/count_reg\[0\]
*791 u_visitor/g1061
*792 u_visitor/g1062
*793 u_visitor/g1063
*794 u_visitor/g1064
*795 u_visitor/g1065
*796 u_visitor/g1066
*797 u_visitor/g1067
*798 u_visitor/g1068
*799 u_visitor/g1069
*800 u_visitor/g1072
*801 u_visitor/g1073
*802 u_visitor/g1074
*803 u_visitor/g1075
*804 u_visitor/g1076
*805 u_visitor/g1077
*806 u_visitor/g1078
*807 u_visitor/g1079
*808 u_visitor/g1080
*809 u_visitor/g1081
*810 u_visitor/g1082
*811 u_visitor/g1083
*812 u_visitor/g1084
*813 u_visitor/g1085
*814 u_visitor/g1086
*815 u_visitor/g1087
*816 u_visitor/g1088
*817 u_visitor/g1090
*818 u_visitor/g1091
*819 u_visitor/g1092
*820 u_visitor/g1093
*821 u_visitor/exit_prev_reg
*822 u_visitor/entry_prev_reg
*823 u_visitor/g1096
*824 u_visitor/g1098
*825 u_visitor/g1099
*826 u_visitor/g1100
*827 u_visitor/g1101
*828 u_visitor/g1102
*829 u_visitor/g1103
*830 u_visitor/g1104
*831 u_visitor/g1105
*832 u_visitor/g1109
*833 u_visitor/g2
*834 u_visitor/g1110
*835 u_water_ctrl/valve_close_reg
*836 u_water_ctrl/g77
*837 u_water_ctrl/g79
*838 u_water_ctrl/g81
*839 u_water_ctrl/pump_on_reg
*840 u_water_ctrl/g2
*841 u_window/window_state_reg\[0\]
*842 u_window/g360
*843 u_window/window_state_reg\[1\]
*844 u_window/g362
*845 u_window/g363
*846 u_window/g364
*847 u_window/g365
*848 u_window/g366
*849 u_window/g367
*850 u_window/g368
*851 u_window/g369
*852 u_window/g370
*853 u_window/g371
*854 u_window/g372
*855 u_window/g373
*856 water_valve_close_r_reg
*857 tv_on_r_reg
*858 music_on_r_reg
*859 g44
*860 g45
*861 g74
*862 g75
*863 g76
*864 g77
*865 led_brightness_r_reg\[2\]
*866 led_brightness_r_reg\[7\]
*867 led_brightness_r_reg\[3\]
*868 humidifier_on_r_reg
*869 dehumidifier_on_r_reg
*870 lights_on_r_reg
*871 led_brightness_r_reg\[1\]
*872 led_brightness_r_reg\[0\]
*873 led_brightness_r_reg\[6\]
*874 led_brightness_r_reg\[5\]
*875 led_brightness_r_reg\[4\]
*876 ac_on_r_reg
*877 fan_on_r_reg
*878 g46
*879 g47
*880 lock_status_r_reg\[0\]
*881 lock_status_r_reg\[1\]
*882 door_locked_r_reg
*883 g72
*884 g73
*885 g48
*886 volume_level_r_reg\[2\]
*887 volume_level_r_reg\[3\]
*888 volume_level_r_reg\[1\]
*889 volume_level_r_reg\[0\]
*890 g49
*891 g50
*892 g51
*893 g70
*894 g71
*895 water_pump_on_r_reg
*896 pin_input_r_reg\[3\]
*897 ac_cmd_r_reg
*898 visitor_count_r_reg\[1\]
*899 visitor_count_r_reg\[5\]
*900 visitor_count_r_reg\[4\]
*901 visitor_count_r_reg\[2\]
*902 visitor_count_r_reg\[3\]
*903 window_state_r_reg\[1\]
*904 visitor_count_r_reg\[0\]
*905 window_state_r_reg\[0\]
*906 visitor_count_r_reg\[7\]
*907 visitor_count_r_reg\[6\]
*908 window_manual_open_r_reg
*909 motion_sensor_r_reg
*910 temp_sensor_r_reg\[0\]
*911 temp_sensor_r_reg\[1\]
*912 temp_sensor_r_reg\[2\]
*913 temp_sensor_r_reg\[3\]
*914 temp_sensor_r_reg\[4\]
*915 temp_sensor_r_reg\[5\]
*916 pin_input_r_reg\[0\]
*917 temp_sensor_r_reg\[7\]
*918 temp_setpoint_r_reg\[7\]
*919 temp_setpoint_r_reg\[0\]
*920 temp_setpoint_r_reg\[2\]
*921 temp_setpoint_r_reg\[3\]
*922 temp_setpoint_r_reg\[4\]
*923 temp_setpoint_r_reg\[6\]
*924 window_sensor_r_reg
*925 window_auto_mode_r_reg
*926 alarm_arm_r_reg
*927 door_sensor_r_reg
*928 entry_sensor_r_reg
*929 exit_sensor_r_reg
*930 humidity_sensor_r_reg\[3\]
*931 pin_input_r_reg\[2\]
*932 pin_input_r_reg\[1\]
*933 heater_on_r_reg
*934 volume_cmd_r_reg\[0\]
*935 volume_cmd_r_reg\[1\]
*936 door_unlock_cmd_r_reg
*937 window_manual_close_r_reg
*938 volume_cmd_r_reg\[2\]
*939 door_lock_cmd_r_reg
*940 humidity_sensor_r_reg\[6\]
*941 light_cmd_r_reg
*942 humidity_sensor_r_reg\[0\]
*943 volume_cmd_r_reg\[3\]
*944 temp_setpoint_r_reg\[1\]
*945 temp_setpoint_r_reg\[5\]
*946 water_level_r_reg\[0\]
*947 temp_sensor_r_reg\[6\]
*948 fan_cmd_r_reg
*949 humidity_sensor_r_reg\[1\]
*950 humidity_sensor_r_reg\[2\]
*951 humidity_sensor_r_reg\[4\]
*952 humidity_sensor_r_reg\[5\]
*953 humidity_sensor_r_reg\[7\]
*954 music_on_cmd_r_reg
*955 tv_on_cmd_r_reg
*956 water_level_r_reg\[3\]
*957 water_level_r_reg\[1\]
*958 water_level_r_reg\[2\]
*959 burglar_alarm_out_r_reg
*960 light_sensor_r_reg\[5\]
*961 light_sensor_r_reg\[6\]
*962 light_sensor_r_reg\[4\]
*963 light_sensor_r_reg\[3\]
*964 cooler_on_r_reg
*965 light_sensor_r_reg\[1\]
*966 light_sensor_r_reg\[2\]
*967 light_sensor_r_reg\[7\]
*968 light_sensor_r_reg\[0\]


*PORTS

*9 I *C 119.19 0
*10 I *C 119.19 4.905
*30 I *C 119.19 44.15
*31 I *C 119.19 39.245
*32 I *C 119.19 34.34
*33 I *C 119.19 29.435
*34 I *C 119.19 24.525
*35 I *C 119.19 19.62
*36 I *C 119.19 14.715
*37 I *C 119.19 9.81
*38 I *C 119.19 83.395
*39 I *C 119.19 78.49
*40 I *C 119.19 73.58
*41 I *C 119.19 68.675
*42 I *C 119.19 63.77
*43 I *C 119.19 58.865
*44 I *C 119.19 53.96
*45 I *C 119.19 49.055
*62 I *C 119.19 103.015
*63 I *C 119.19 98.11
*64 I *C 119.19 93.205
*65 I *C 119.19 88.3
*46 I *C 29.795 0
*47 I *C 25.54 0
*48 I *C 21.28 0
*49 I *C 17.025 0
*50 I *C 12.77 0
*51 I *C 8.515 0
*52 I *C 4.255 0
*53 I *C 0 0
*11 I *C 68.105 0
*12 I *C 72.36 0
*13 I *C 76.615 0
*14 I *C 80.875 0
*15 I *C 0 0
*16 I *C 0 4.205
*17 I *C 85.13 0
*18 I *C 89.385 0
*19 I *C 93.645 0
*20 I *C 97.9 0
*21 I *C 102.155 0
*66 I *C 119.18 0
*67 I *C 114.925 0
*68 I *C 110.67 0
*69 I *C 106.41 0
*22 I *C 0 8.41
*23 I *C 0 12.615
*24 I *C 0 16.82
*25 I *C 0 21.025
*26 I *C 0 25.23
*70 I *C 0 42.05
*71 I *C 0 37.845
*72 I *C 0 33.64
*73 I *C 0 29.435
*54 I *C 63.845 0
*55 I *C 59.59 0
*56 I *C 55.335 0
*57 I *C 51.08 0
*58 I *C 46.82 0
*59 I *C 42.565 0
*60 I *C 38.31 0
*61 I *C 34.05 0
*74 O *C 0 117.74
*75 O *C 4.11 117.74
*76 O *C 8.22 117.74
*77 O *C 12.33 117.74
*89 O *C 0 113.535
*90 O *C 0 109.33
*91 O *C 0 105.125
*92 O *C 0 100.92
*93 O *C 0 96.715
*94 O *C 0 92.51
*95 O *C 0 88.305
*96 O *C 0 84.1
*78 O *C 16.44 117.74
*97 O *C 49.32 117.74
*98 O *C 45.21 117.74
*99 O *C 41.1 117.74
*100 O *C 36.99 117.74
*101 O *C 32.88 117.74
*102 O *C 28.77 117.74
*103 O *C 24.66 117.74
*104 O *C 20.55 117.74
*522 O *C 57.54 117.74
*113 O *C 53.43 117.74
*79 O *C 61.65 117.74
*80 O *C 65.76 117.74
*116 O *C 82.2 117.74
*117 O *C 78.09 117.74
*118 O *C 73.98 117.74
*119 O *C 69.87 117.74
*81 O *C 86.31 117.74
*82 O *C 90.42 117.74
*83 O *C 94.53 117.74
*84 O *C 98.64 117.74
*114 O *C 106.86 117.74
*115 O *C 102.75 117.74
*85 O *C 110.97 117.74
*86 O *C 115.08 117.74
*105 O *C 0 79.895
*106 O *C 0 75.69
*107 O *C 0 71.485
*108 O *C 0 67.28
*109 O *C 0 63.075
*110 O *C 0 58.87
*111 O *C 0 54.665
*112 O *C 0 50.46
*27 I *C 119.19 107.92
*28 I *C 119.19 117.73
*87 O *C 0 117.74
*29 I *C 0 46.255
*88 O *C 119.19 117.74


*D_NET *1 0.00320332

*CONN
*I *639:A I *C 51.765 62.785 *L 0.00157 *D NAND2XL
*I *633:A I *C 54.085 65.3475 *L 0.00178 *D XNOR2XL
*I *608:A I *C 51.185 70.325 *L 0.00162 *D NOR2XL
*I *607:Q O *C 50.605 73.805 *L 0 *D SDFFRHQX1
*I *959:SI I *C 52.055 78.735 *L 0.00168 *D SDFFRX1

*CAP
1 *1:2 2.16526e-05
2 *1:3 2.16526e-05
3 *1:4 0.000234249
4 *1:5 0.000234249
5 *1:6 0.000163477
6 *1:7 0.000141825
7 *1:8 2.16526e-05
8 *1:9 4.54125e-05
9 *1:10 0.00031943
10 *1:11 4.54125e-05
11 *1:12 0.000596269
12 *1:14 0.000276839
13 *1:15 4.33052e-05
14 *1:16 2.16526e-05
15 *1:17 4.33052e-05
16 *1:18 8.66103e-05
17 *1:20 0.000343255
18 *1:21 6.49577e-05
19 *1:23 0.000343255
20 *1:24 2.12953e-05
21 *1:25 4.61351e-05
22 *1:26 2.12953e-05
23 *1:27 4.61351e-05

*RES
1 *1:29 *959:SI 1.4
2 *1:27 *1:29 1.4
3 *1:26 *607:Q 1.4
4 *1:25 *1:27 0.248566
5 *1:24 *1:26 0.124283
6 *1:23 *1:25 1.4
7 *1:21 *1:24 1.4
8 *1:20 *1:23 1.98853
9 *1:19 *608:A 1.4
10 *1:18 *1:21 0.372866
11 *1:18 *1:20 1.4
12 *1:17 *1:19 1.4
13 *1:16 *1:18 0.124289
14 *1:15 *1:17 0.248578
15 *1:14 *1:16 1.4
16 *1:12 *1:15 1.4
17 *1:12 *1:14 1.61567
18 *1:11 *633:A 1.4
19 *1:10 *1:12 1.86424
20 *1:9 *1:11 0.267851
21 *1:8 *1:10 1.4
22 *1:7 *1:9 1.4
23 *1:6 *1:8 0.124289
24 *1:6 *1:7 0.869985
25 *1:5 *1:6 1.4
26 *1:4 *1:5 1.36711
27 *1:3 *1:4 1.4
28 *1:2 *1:3 0.124289
29 *1:1 *1:2 1.4
30 *639:A *1:1 1.4
*END

*D_NET *2 0.00340908

*CONN
*I *933:SI I *C 61.625 57.855 *L 0.00168 *D SDFFRX1
*I *633:B I *C 55.535 65.395 *L 0.00349 *D XNOR2XL
*I *600:Q O *C 51.475 68.585 *L 0 *D SDFFRHQX1
*I *639:B I *C 51.185 62.785 *L 0.00167 *D NAND2XL

*CAP
1 *2:1 0.000547857
2 *2:2 0.000547857
3 *2:3 0.000423226
4 *2:4 0.000709124
5 *2:6 0.000307551
6 *2:8 0.000234249
7 *2:9 2.16526e-05
8 *2:10 0.000234249
9 *2:11 0.000191658
10 *2:13 0.000191658

*RES
1 *2:13 *639:B 1.4
2 *2:11 *2:13 1.11854
3 *2:10 *600:Q 1.4
4 *2:9 *2:11 1.4
5 *2:8 *2:10 1.36711
6 *2:6 *2:9 0.124289
7 *2:6 *2:8 1.4
8 *2:5 *633:B 1.4
9 *2:4 *2:6 1.73998
10 *2:4 *2:5 1.4
11 *2:3 *2:4 2.60995
12 *2:2 *2:3 1.4
13 *2:1 *2:2 3.23136
14 *933:SI *2:1 1.4
*END

*D_NET *3 0.0025427

*CONN
*I *603:SI I *C 47.125 36.685 *L 0.00276 *D SDFFRHQX1
*I *549:Q O *C 47.705 33.495 *L 0 *D SDFFRHQX1
*I *553:S0 I *C 56.115 31.465 *L 0.00372 *D MXI2XL
*I *567:A I *C 53.215 31.175 *L 0.0018 *D XOR2XL
*I *569:A I *C 59.595 31.465 *L 0.00157 *D NAND2XL

*CAP
1 *3:2 1.99735e-05
2 *3:3 1.99735e-05
3 *3:4 0.000104357
4 *3:5 0.000104357
5 *3:6 1.99735e-05
6 *3:7 1.99735e-05
7 *3:8 0.000125229
8 *3:9 0.000271329
9 *3:11 0.0001461
10 *3:12 0.000381444
11 *3:13 0.000586744
12 *3:14 0.000451659
13 *3:15 2.26116e-05
14 *3:16 0.00024636
15 *3:18 2.26116e-05

*RES
1 *3:19 *569:A 1.4
2 *3:18 *567:A 1.4
3 *3:17 *553:S0 1.4
4 *3:16 *3:19 1.4
5 *3:15 *3:18 0.124289
6 *3:14 *3:17 1.4
7 *3:14 *3:16 1.4914
8 *3:13 *3:15 1.4
9 *3:13 *3:14 1.24283
10 *3:12 *3:13 2.36147
11 *3:11 *3:12 1.4
12 *3:9 *3:11 0.869979
13 *3:9 *549:Q 1.4
14 *3:8 *3:9 0.745696
15 *3:7 *3:8 1.4
16 *3:6 *3:7 0.124289
17 *3:5 *3:6 1.4
18 *3:4 *3:5 0.621413
19 *3:3 *3:4 1.4
20 *3:2 *3:3 0.124289
21 *3:1 *3:2 1.4
22 *603:SI *3:1 1.4
*END

*D_NET *4 0.0040287

*CONN
*I *638:B I *C 39.295 62.785 *L 0.00171 *D NOR2XL
*I *594:A0 I *C 37.265 65.105 *L 0.00158 *D AOI21XL
*I *595:A I *C 32.625 65.105 *L 0.00162 *D NOR2XL
*I *597:B I *C 32.045 63.075 *L 0.00284 *D NAND2BX1
*I *588:Q O *C 26.825 59.595 *L 0 *D SDFFRHQX1
*I *822:SI I *C 25.085 68.005 *L 0.00276 *D SDFFRHQX1

*CAP
1 *4:2 0.000151568
2 *4:3 0.000151568
3 *4:4 0.000170363
4 *4:5 0.000170363
5 *4:7 0.000346441
6 *4:8 0.000368094
7 *4:10 2.16526e-05
8 *4:12 0.000149067
9 *4:13 0.000149067
10 *4:14 2.16526e-05
11 *4:15 0.000411399
12 *4:17 0.000494654
13 *4:19 0.000255544
14 *4:20 0.000104908
15 *4:21 0.000255544
16 *4:22 0.000383096
17 *4:24 0.000383096
18 *4:25 2.03105e-05
19 *4:26 2.03105e-05

*RES
1 *4:27 *822:SI 1.4
2 *4:26 *4:27 1.4
3 *4:25 *4:26 0.124289
4 *4:24 *4:25 1.4
5 *4:22 *4:24 2.1129
6 *4:21 *588:Q 1.4
7 *4:20 *4:22 1.4
8 *4:19 *4:21 1.49139
9 *4:17 *4:20 0.621444
10 *4:17 *4:19 1.4
11 *4:16 *597:B 1.4
12 *4:15 *4:17 2.2372
13 *4:15 *4:16 1.4
14 *4:14 *4:15 0.124289
15 *4:13 *4:14 1.4
16 *4:12 *4:13 0.869979
17 *4:10 *4:12 1.4
18 *4:9 *595:A 1.4
19 *4:8 *4:10 0.124289
20 *4:8 *4:9 1.4
21 *4:7 *4:8 1.98862
22 *4:5 *4:7 1.4
23 *4:5 *594:A0 1.4
24 *4:4 *4:5 0.994261
25 *4:3 *4:4 1.4
26 *4:2 *4:3 0.870021
27 *4:1 *4:2 1.4
28 *638:B *4:1 1.4
*END

*D_NET *5 0.00338967

*CONN
*I *609:A I *C 38.715 68.295 *L 0.00162 *D NOR2XL
*I *610:B I *C 39.585 65.105 *L 0.00284 *D NAND2BX1
*I *638:A I *C 39.585 63.075 *L 0.00162 *D NOR2XL
*I *604:A0 I *C 42.485 70.325 *L 0.00158 *D AOI21XL
*I *593:Q O *C 48.285 73.805 *L 0 *D SDFFRHQX1
*I *781:SI I *C 48.575 75.835 *L 0.00272 *D SDFFRHQX2

*CAP
1 *5:2 6.49577e-05
2 *5:3 6.49577e-05
3 *5:4 0.000255544
4 *5:5 2.12953e-05
5 *5:6 0.000383316
6 *5:7 0.000238178
7 *5:9 0.000149067
8 *5:10 0.000238178
9 *5:12 0.000127772
10 *5:13 0.000127772
11 *5:14 0.000281484
12 *5:15 0.000259831
13 *5:16 2.16526e-05
14 *5:17 0.000255544
15 *5:19 0.000255544
16 *5:21 0.000151568
17 *5:22 0.000173221
18 *5:23 2.16526e-05
19 *5:25 0.000149067
20 *5:27 0.000149067

*RES
1 *5:27 *781:SI 1.4
2 *5:25 *5:27 0.869979
3 *5:24 *593:Q 1.4
4 *5:23 *5:25 1.4
5 *5:22 *5:24 1.4
6 *5:22 *5:23 0.124289
7 *5:21 *5:22 0.870021
8 *5:19 *5:21 1.4
9 *5:18 *604:A0 1.4
10 *5:17 *5:19 1.49139
11 *5:16 *5:18 1.4
12 *5:15 *5:17 1.4
13 *5:14 *5:16 0.124289
14 *5:14 *5:15 1.49147
15 *5:13 *5:14 1.4
16 *5:12 *5:13 0.745696
17 *5:10 *5:12 1.4
18 *5:9 *638:A 1.4
19 *5:7 *5:10 1.36718
20 *5:6 *5:9 0.869979
21 *5:6 *610:B 1.4
22 *5:5 *5:7 1.4
23 *5:4 *5:6 1.36711
24 *5:4 *5:5 0.124283
25 *5:3 *5:4 1.4
26 *5:2 *5:3 0.372866
27 *5:1 *5:2 1.4
28 *609:A *5:1 1.4
*END

*D_NET *6 0.00387896

*CONN
*I *631:B0 I *C 26.245 44.225 *L 0.00266 *D AOI32X1
*I *620:A0 I *C 24.45 42.2075 *L 0.00263 *D AOI211X1
*I *636:B I *C 21.895 41.905 *L 0.00167 *D NAND2XL
*I *641:A I *C 20.155 44.225 *L 0.00273 *D INVX1
*I *599:Q O *C 19.865 47.705 *L 0 *D SDFFRHQX1
*I *525:SI I *C 6.815 47.125 *L 0.00276 *D SDFFRHQX1

*CAP
1 *6:1 0.000104357
2 *6:2 0.000104357
3 *6:3 0.000118032
4 *6:4 0.000294832
5 *6:5 4.36824e-05
6 *6:6 0.000294668
7 *6:7 4.79347e-05
8 *6:8 6.72632e-05
9 *6:9 0.000117867
10 *6:10 4.25227e-06
11 *6:11 6.72632e-05
12 *6:12 0.000112105
13 *6:15 0.000358737
14 *6:16 0.000246632
15 *6:18 1.96445e-05
16 *6:19 0.000903648
17 *6:20 2.24211e-05
18 *6:21 0.000884004
19 *6:22 2.24211e-05
20 *6:23 2.24211e-05
21 *6:25 2.24211e-05

*RES
1 *6:25 *525:SI 1.4
2 *6:23 *6:25 0.124289
3 *6:22 *599:Q 1.4
4 *6:21 *6:23 1.4
5 *6:20 *6:22 0.124289
6 *6:19 *6:21 5.59299
7 *6:19 *6:20 1.4
8 *6:18 *6:19 0.124289
9 *6:16 *6:18 1.4
10 *6:15 *641:A 1.4
11 *6:15 *6:16 1.36718
12 *6:12 *6:15 0.621444
13 *6:11 *636:B 1.4
14 *6:10 *620:A0 1.4
15 *6:9 *6:12 1.4
16 *6:8 *6:11 0.372866
17 *6:7 *6:10 0.023572
18 *6:6 *6:9 0.745732
19 *6:6 *6:8 1.4
20 *6:5 *6:7 0.242149
21 *6:4 *6:6 1.1186
22 *6:4 *6:5 1.4
23 *6:3 *6:4 0.745732
24 *6:2 *6:3 1.4
25 *6:1 *6:2 0.621413
26 *631:B0 *6:1 1.4
*END

*D_NET *7 0.00327122

*CONN
*I *936:SI I *C 23.635 28.565 *L 0.00268 *D SDFFRHQX4
*I *642:A I *C 28.275 39.005 *L 0.00273 *D CLKINVX1
*I *620:A1 I *C 24.795 42.195 *L 0.00279 *D AOI211X1
*I *615:Q O *C 30.305 37.265 *L 0 *D SDFFRHQX1

*CAP
1 *7:2 1.96445e-05
2 *7:3 1.96445e-05
3 *7:4 0.000807158
4 *7:5 0.000807158
5 *7:6 5.89336e-05
6 *7:7 0.000297135
7 *7:8 0.000378016
8 *7:9 0.000246632
9 *7:10 0.000139814
10 *7:12 0.000246632
11 *7:13 0.000125229
12 *7:16 0.000125229

*RES
1 *7:16 *615:Q 1.4
2 *7:13 *7:16 0.745696
3 *7:12 *620:A1 1.4
4 *7:11 *642:A 1.4
5 *7:10 *7:13 1.4
6 *7:9 *7:12 1.36718
7 *7:8 *7:11 1.4
8 *7:8 *7:10 0.870021
9 *7:7 *7:9 1.4
10 *7:7 *7:8 1.49147
11 *7:6 *7:7 0.372866
12 *7:5 *7:6 1.4
13 *7:4 *7:5 4.4744
14 *7:3 *7:4 1.4
15 *7:2 *7:3 0.124289
16 *7:1 *7:2 1.4
17 *936:SI *7:1 1.4
*END

*D_NET *8 0.00421354

*CONN
*I *569:B I *C 60.175 31.465 *L 0.00167 *D NAND2XL
*I *552:B0 I *C 58.145 26.535 *L 0.00165 *D AO22X1
*I *567:B I *C 52.055 31.465 *L 0.00365 *D XOR2XL
*I *841:SI I *C 54.085 21.025 *L 0.00276 *D SDFFRHQX1
*I *547:Q O *C 51.185 23.055 *L 0 *D SDFFRHQX1

*CAP
1 *8:2 2.053e-05
2 *8:3 2.053e-05
3 *8:4 0.000407008
4 *8:5 0.000407008
5 *8:6 0.00016424
6 *8:7 0.00032848
7 *8:8 2.26116e-05
8 *8:9 0.00016424
9 *8:10 2.26116e-05
10 *8:11 0.000181147
11 *8:13 0.000181147
12 *8:14 8.38135e-05
13 *8:15 0.000271857
14 *8:16 0.000179832
15 *8:17 0.000188043
16 *8:18 0.000179832
17 *8:19 0.000593759
18 *8:20 4.19067e-05
19 *8:21 0.000554209
20 *8:22 3.955e-05
21 *8:23 4.19067e-05
22 *8:25 5.96382e-05
23 *8:27 5.96382e-05

*RES
1 *8:29 *547:Q 1.4
2 *8:27 *8:29 1.4
3 *8:26 *841:SI 1.4
4 *8:25 *8:27 0.372849
5 *8:23 *8:26 1.4
6 *8:22 *8:25 1.4
7 *8:21 *567:B 1.4
8 *8:20 *8:23 0.248578
9 *8:19 *8:22 0.248566
10 *8:19 *8:21 3.35564
11 *8:18 *8:20 1.4
12 *8:17 *8:19 1.4
13 *8:16 *8:18 1.1186
14 *8:15 *8:17 1.1186
15 *8:15 *8:16 1.4
16 *8:14 *8:15 0.497155
17 *8:13 *8:14 1.4
18 *8:11 *8:13 1.1186
19 *8:10 *552:B0 1.4
20 *8:9 *8:11 1.4
21 *8:8 *8:10 0.124289
22 *8:7 *8:9 0.994265
23 *8:7 *8:8 1.4
24 *8:6 *8:7 0.994265
25 *8:5 *8:6 1.4
26 *8:4 *8:5 2.2372
27 *8:3 *8:4 1.4
28 *8:2 *8:3 0.124283
29 *8:1 *8:2 1.4
30 *569:B *8:1 1.4
*END

*D_NET *9 0.158396

*CONN
*I *579:CK I *C 43.355 47.125 *L 0.00176 *D SDFFRHQX1
*I *546:CK I *C 50.025 52.345 *L 0.00176 *D SDFFRHQX1
*I *601:CK I *C 50.315 60.175 *L 0.00176 *D SDFFRHQX1
*I *964:CK I *C 52.635 55.245 *L 0.0017 *D SDFFRX1
*I *933:CK I *C 53.795 57.275 *L 0.0017 *D SDFFRX1
*I *905:CK I *C 59.885 60.175 *L 0.00174 *D SDFFRHQX8
*I *526:CK I *C 61.045 52.345 *L 0.00176 *D SDFFRHQX1
*I *903:CK I *C 67.715 65.395 *L 0.00174 *D SDFFRHQX8
*I *683:CK I *C 68.875 57.275 *L 0.00177 *D SDFFRXL
*I *529:CK I *C 62.205 47.125 *L 0.00176 *D SDFFRHQX1
*I *575:CK I *C 71.485 70.615 *L 0.00176 *D SDFFRHQX1
*I *682:CK I *C 71.485 55.245 *L 0.00177 *D SDFFRXL
*I *659:CK I *C 71.775 75.835 *L 0.00176 *D SDFFRHQX1
*I *647:CK I *C 68.875 81.055 *L 0.00176 *D SDFFRHQX1
*I *528:CK I *C 78.735 47.125 *L 0.00176 *D SDFFRHQX1
*I *648:CK I *C 69.165 83.665 *L 0.00176 *D SDFFRHQX1
*I *882:CK I *C 62.205 72.935 *L 0.0017 *D SDFFRX1
*I *577:CK I *C 76.705 86.275 *L 0.00176 *D SDFFRHQX1
*I *576:CK I *C 68.585 88.885 *L 0.00176 *D SDFFRHQX1
*I *658:CK I *C 77.575 78.445 *L 0.00176 *D SDFFRHQX1
*I *858:CK I *C 69.745 94.105 *L 0.00174 *D SDFFRHQX8
*I *959:CK I *C 59.885 78.155 *L 0.0017 *D SDFFRX1
*I *600:CK I *C 52.055 68.005 *L 0.00176 *D SDFFRHQX1
*I *776:CK I *C 59.305 86.275 *L 0.00175 *D SDFFRHQX2
*I *607:CK I *C 51.185 73.225 *L 0.00176 *D SDFFRHQX1
*I *774:CK I *C 60.175 96.715 *L 0.00175 *D SDFFRHQX2
*I *593:CK I *C 47.705 73.225 *L 0.00176 *D SDFFRHQX1
*I *889:CK I *C 70.615 96.715 *L 0.00174 *D SDFFRHQX8
*I *857:CK I *C 70.035 99.325 *L 0.00174 *D SDFFRHQX8
*I *895:CK I *C 57.855 102.225 *L 0.0017 *D SDFFRX1
*I *835:CK I *C 70.035 101.935 *L 0.00176 *D SDFFRHQX1
*I *839:CK I *C 81.635 101.935 *L 0.00176 *D SDFFRHQX1
*I *777:CK I *C 50.315 99.325 *L 0.00176 *D SDFFRHQX1
*I *821:CK I *C 36.395 70.615 *L 0.00176 *D SDFFRHQX1
*I *781:CK I *C 40.745 75.835 *L 0.00175 *D SDFFRHQX2
*I *856:CK I *C 64.815 104.545 *L 0.00174 *D SDFFRHQX8
*I *888:CK I *C 85.695 99.325 *L 0.00174 *D SDFFRHQX8
*I *907:CK I *C 46.545 104.545 *L 0.00174 *D SDFFRHQX8
*I *822:CK I *C 32.915 68.005 *L 0.00176 *D SDFFRHQX1
*I *886:CK I *C 88.885 94.105 *L 0.00174 *D SDFFRHQX8
*I *900:CK I *C 46.255 101.935 *L 0.00174 *D SDFFRHQX8
*I *902:CK I *C 35.815 107.155 *L 0.00174 *D SDFFRHQX8
*I *881:CK I *C 89.465 104.545 *L 0.00174 *D SDFFRHQX8
*I *899:CK I *C 47.995 109.765 *L 0.00174 *D SDFFRHQX8
*I *901:CK I *C 33.785 112.375 *L 0.00174 *D SDFFRHQX8
*I *887:CK I *C 87.145 91.495 *L 0.00174 *D SDFFRHQX8
*I *880:CK I *C 91.205 107.155 *L 0.00174 *D SDFFRHQX8
*I *906:CK I *C 52.345 107.155 *L 0.00174 *D SDFFRHQX8
*I *869:CK I *C 87.725 88.885 *L 0.00174 *D SDFFRHQX8
*I *651:CK I *C 88.595 81.055 *L 0.00176 *D SDFFRHQX1
*I *956:CK I *C 101.935 104.835 *L 0.00172 *D SDFFRHQX4
*I *868:CK I *C 89.175 86.275 *L 0.00174 *D SDFFRHQX8
*I *649:CK I *C 87.725 83.665 *L 0.00166 *D SDFFSHQX1
*I *958:CK I *C 101.935 96.425 *L 0.00172 *D SDFFRHQX4
*I *898:CK I *C 30.305 101.935 *L 0.00174 *D SDFFRHQX8
*I *650:CK I *C 89.465 73.225 *L 0.00166 *D SDFFSHQX1
*I *957:CK I *C 113.245 94.395 *L 0.00172 *D SDFFRHQX4
*I *904:CK I *C 28.275 104.545 *L 0.00174 *D SDFFRHQX8
*I *790:CK I *C 24.215 99.615 *L 0.00172 *D SDFFRHQX4
*I *785:CK I *C 24.215 96.715 *L 0.00175 *D SDFFRHQX2
*I *946:CK I *C 101.935 89.175 *L 0.00172 *D SDFFRHQX4
*I *918:CK I *C 113.245 83.955 *L 0.00172 *D SDFFRHQX4
*I *923:CK I *C 101.645 78.735 *L 0.00172 *D SDFFRHQX4
*I *945:CK I *C 113.245 75.545 *L 0.00172 *D SDFFRHQX4
*I *874:CK I *C 17.835 94.105 *L 0.00174 *D SDFFRHQX8
*I *652:CK I *C 98.745 78.445 *L 0.00176 *D SDFFRHQX1
*I *922:CK I *C 101.935 73.515 *L 0.00172 *D SDFFRHQX4
*I *786:CK I *C 26.825 86.275 *L 0.00175 *D SDFFRHQX2
*I *921:CK I *C 101.935 68.295 *L 0.00172 *D SDFFRHQX4
*I *873:CK I *C 12.325 96.715 *L 0.00174 *D SDFFRHQX8
*I *920:CK I *C 101.935 63.075 *L 0.00172 *D SDFFRHQX4
*I *866:CK I *C 14.065 99.325 *L 0.00174 *D SDFFRHQX8
*I *875:CK I *C 13.775 91.495 *L 0.00174 *D SDFFRHQX8
*I *865:CK I *C 12.035 83.665 *L 0.00174 *D SDFFRHQX8
*I *867:CK I *C 12.035 86.275 *L 0.00174 *D SDFFRHQX8
*I *871:CK I *C 13.485 81.055 *L 0.00174 *D SDFFRHQX8
*I *672:CK I *C 14.065 73.225 *L 0.00176 *D SDFFRHQX1
*I *671:CK I *C 18.125 73.225 *L 0.00176 *D SDFFRHQX1
*I *670:CK I *C 18.415 65.395 *L 0.00176 *D SDFFRHQX1
*I *673:CK I *C 6.235 68.005 *L 0.00176 *D SDFFRHQX1
*I *666:CK I *C 5.945 70.615 *L 0.00176 *D SDFFRHQX1
*I *668:CK I *C 17.255 70.615 *L 0.00176 *D SDFFRHQX1
*I *872:CK I *C 18.415 75.835 *L 0.00174 *D SDFFRHQX8
*I *788:CK I *C 29.725 75.835 *L 0.00175 *D SDFFRHQX2
*I *667:CK I *C 21.025 65.395 *L 0.00176 *D SDFFRHQX1
*I *876:CK I *C 12.615 62.495 *L 0.0017 *D SDFFRX1
*I *669:CK I *C 24.505 60.175 *L 0.00176 *D SDFFRHQX1
*I *870:CK I *C 25.955 57.275 *L 0.0017 *D SDFFRX1
*I *877:CK I *C 14.065 57.275 *L 0.0017 *D SDFFRX1
*I *588:CK I *C 27.405 60.175 *L 0.00176 *D SDFFRHQX1
*I *584:CK I *C 30.015 54.955 *L 0.00176 *D SDFFRHQX1
*I *580:CK I *C 40.455 54.955 *L 0.00176 *D SDFFRHQX1
*I *929:CK I *C 28.275 52.635 *L 0.00172 *D SDFFRHQX4
*I *598:CK I *C 21.895 49.735 *L 0.00176 *D SDFFRHQX1
*I *523:CK I *C 18.995 49.735 *L 0.00176 *D SDFFRHQX1
*I *599:CK I *C 20.445 47.125 *L 0.00176 *D SDFFRHQX1
*I *896:CK I *C 17.255 42.195 *L 0.00172 *D SDFFRHQX4
*I *931:CK I *C 17.545 36.975 *L 0.00172 *D SDFFRHQX4
*I *615:CK I *C 29.725 36.685 *L 0.00176 *D SDFFRHQX1
*I *525:CK I *C 14.645 47.125 *L 0.00176 *D SDFFRHQX1
*I *524:CK I *C 6.525 44.515 *L 0.00176 *D SDFFRHQX1
*I *603:CK I *C 39.295 36.685 *L 0.00176 *D SDFFRHQX1
*I *932:CK I *C 5.655 39.005 *L 0.00172 *D SDFFRHQX4
*I *968:CK I *C 17.835 16.095 *L 0.00172 *D SDFFRHQX4
*I *916:CK I *C 17.255 33.785 *L 0.00172 *D SDFFRHQX4
*I *936:CK I *C 34.365 28.565 *L 0.00172 *D SDFFRHQX4
*I *897:CK I *C 17.255 28.565 *L 0.00172 *D SDFFRHQX4
*I *965:CK I *C 17.835 12.905 *L 0.00172 *D SDFFRHQX4
*I *948:CK I *C 17.255 26.535 *L 0.00172 *D SDFFRHQX4
*I *549:CK I *C 48.285 34.075 *L 0.00176 *D SDFFRHQX1
*I *939:CK I *C 39.295 26.535 *L 0.00172 *D SDFFRHQX4
*I *928:CK I *C 23.055 12.905 *L 0.00172 *D SDFFRHQX4
*I *941:CK I *C 6.525 21.315 *L 0.00172 *D SDFFRHQX4
*I *534:CK I *C 50.315 36.685 *L 0.00176 *D SDFFRHQX1
*I *841:CK I *C 46.255 21.025 *L 0.00176 *D SDFFRHQX1
*I *963:CK I *C 18.125 5.655 *L 0.00172 *D SDFFRHQX4
*I *942:CK I *C 46.835 10.875 *L 0.00172 *D SDFFRHQX4
*I *967:CK I *C 23.635 18.125 *L 0.00172 *D SDFFRHQX4
*I *966:CK I *C 6.525 10.875 *L 0.00172 *D SDFFRHQX4
*I *602:CK I *C 52.055 39.295 *L 0.00176 *D SDFFRHQX1
*I *952:CK I *C 47.705 10.875 *L 0.00172 *D SDFFRHQX4
*I *949:CK I *C 38.135 18.125 *L 0.00172 *D SDFFRHQX4
*I *547:CK I *C 51.765 23.635 *L 0.00176 *D SDFFRHQX1
*I *950:CK I *C 46.545 7.685 *L 0.00172 *D SDFFRHQX4
*I *961:CK I *C 34.945 16.095 *L 0.00172 *D SDFFRHQX4
*I *962:CK I *C 34.945 5.655 *L 0.00172 *D SDFFRHQX4
*I *843:CK I *C 58.435 21.025 *L 0.00176 *D SDFFRHQX1
*I *960:CK I *C 34.075 10.875 *L 0.00172 *D SDFFRHQX4
*I *927:CK I *C 69.745 12.905 *L 0.00172 *D SDFFRHQX4
*I *537:CK I *C 62.785 28.855 *L 0.00176 *D SDFFRHQX1
*I *951:CK I *C 59.595 12.905 *L 0.00172 *D SDFFRHQX4
*I *953:CK I *C 60.465 7.685 *L 0.00172 *D SDFFRHQX4
*I *937:CK I *C 71.195 16.095 *L 0.00172 *D SDFFRHQX4
*I *925:CK I *C 70.615 21.315 *L 0.00172 *D SDFFRHQX4
*I *940:CK I *C 72.065 10.875 *L 0.00172 *D SDFFRHQX4
*I *930:CK I *C 58.435 5.655 *L 0.00172 *D SDFFRHQX4
*I *955:CK I *C 76.995 23.345 *L 0.00172 *D SDFFRHQX4
*I *532:CK I *C 80.475 34.075 *L 0.00176 *D SDFFRHQX1
*I *908:CK I *C 79.605 10.875 *L 0.00172 *D SDFFRHQX4
*I *934:CK I *C 84.245 21.315 *L 0.00172 *D SDFFRHQX4
*I *909:CK I *C 73.515 5.655 *L 0.00172 *D SDFFRHQX4
*I *538:CK I *C 80.765 26.245 *L 0.00176 *D SDFFRHQX1
*I *913:CK I *C 97.875 23.345 *L 0.00172 *D SDFFRHQX4
*I *954:CK I *C 96.425 18.125 *L 0.00172 *D SDFFRHQX4
*I *943:CK I *C 108.895 7.685 *L 0.00172 *D SDFFRHQX4
*I *911:CK I *C 109.475 18.125 *L 0.00172 *D SDFFRHQX4
*I *912:CK I *C 98.165 21.315 *L 0.00172 *D SDFFRHQX4
*I *910:CK I *C 97.875 16.095 *L 0.00172 *D SDFFRHQX4
*I *938:CK I *C 103.675 5.655 *L 0.00172 *D SDFFRHQX4
*I *935:CK I *C 94.105 12.905 *L 0.00172 *D SDFFRHQX4
*I *914:CK I *C 101.935 28.565 *L 0.00172 *D SDFFRHQX4
*I *915:CK I *C 101.935 36.975 *L 0.00172 *D SDFFRHQX4
*I *926:CK I *C 91.785 7.685 *L 0.00172 *D SDFFRHQX4
*I *947:CK I *C 113.245 42.195 *L 0.00172 *D SDFFRHQX4
*P *9 I *C 119.19 0 *L 0
*I *944:CK I *C 113.245 54.665 *L 0.00172 *D SDFFRHQX4
*I *917:CK I *C 101.935 47.415 *L 0.00172 *D SDFFRHQX4
*I *919:CK I *C 113.245 33.785 *L 0.00172 *D SDFFRHQX4
*I *924:CK I *C 88.305 5.655 *L 0.00172 *D SDFFRHQX4

*CAP
1 *9:2 0.00045939
2 *9:3 0.00045939
3 *9:4 0.000375898
4 *9:5 0.000567556
5 *9:6 0.000191658
6 *9:8 2.16526e-05
7 *9:9 0.000151568
8 *9:10 0.000129915
9 *9:11 0.000383316
10 *9:12 2.12953e-05
11 *9:13 0.000383316
12 *9:14 0.000170363
13 *9:16 0.000149067
14 *9:17 4.10567e-05
15 *9:18 0.000121671
16 *9:19 4.10567e-05
17 *9:20 0.000544897
18 *9:22 0.000503841
19 *9:25 0.000210714
20 *9:26 8.06145e-05
21 *9:28 0.000210714
22 *9:29 0.000358214
23 *9:30 0.000544148
24 *9:32 0.000402667
25 *9:33 0.000624762
26 *9:35 4.44531e-05
27 *9:36 0.000379285
28 *9:37 8.06145e-05
29 *9:38 8.21199e-05
30 *9:39 0.000379285
31 *9:40 0.000210714
32 *9:41 8.21199e-05
33 *9:42 0.000261997
34 *9:44 0.000210714
35 *9:45 0.000361785
36 *9:46 0.000261997
37 *9:48 0.000181383
38 *9:49 0.000361785
39 *9:50 0.000379285
40 *9:51 0.000181383
41 *9:53 0.000758571
42 *9:54 0.0001475
43 *9:55 0.000379285
44 *9:57 0.0001475
45 *9:58 0.000201536
46 *9:60 0.000503981
47 *9:61 2.01536e-05
48 *9:62 0.000181383
49 *9:63 0.000503981
50 *9:65 0.000440425
51 *9:66 0.000617933
52 *9:68 0.000564888
53 *9:69 6.32142e-05
54 *9:70 0.000617933
55 *9:71 0.000375354
56 *9:73 0.000463533
57 *9:75 0.000187677
58 *9:76 2.10557e-05
59 *9:77 0.000463533
60 *9:78 2.10557e-05
61 *9:79 2.10557e-05
62 *9:80 0.0001475
63 *9:81 0.000568504
64 *9:83 0.000168571
65 *9:84 0.00020853
66 *9:85 0.000694415
67 *9:88 2.10714e-05
68 *9:89 0.00020853
69 *9:90 0.000146966
70 *9:92 0.000181383
71 *9:93 0.000105279
72 *9:94 0.00058632
73 *9:96 0.000181383
74 *9:97 6.31671e-05
75 *9:98 4.21114e-05
76 *9:99 0.00058632
77 *9:100 2.10714e-05
78 *9:101 0.000354501
79 *9:102 2.0853e-05
80 *9:103 8.37993e-05
81 *9:104 0.000400357
82 *9:105 0.000500472
83 *9:106 2.0853e-05
84 *9:107 8.37993e-05
85 *9:108 0.000963279
86 *9:109 0.000524744
87 *9:110 0.000145971
88 *9:111 2.10557e-05
89 *9:114 0.000583994
90 *9:115 2.01536e-05
91 *9:116 0.000589701
92 *9:117 0.00073695
93 *9:118 2.10557e-05
94 *9:120 2.10557e-05
95 *9:121 2.01536e-05
96 *9:122 0.000362021
97 *9:123 6.49577e-05
98 *9:124 2.10557e-05
99 *9:125 0.000715894
100 *9:127 2.10557e-05
101 *9:129 0.000362021
102 *9:130 2.12953e-05
103 *9:131 4.1706e-05
104 *9:132 4.1706e-05
105 *9:137 2.12953e-05
106 *9:138 0.000229383
107 *9:139 0.000437913
108 *9:141 0.000259831
109 *9:143 0.00041706
110 *9:144 2.10557e-05
111 *9:145 0.000396207
112 *9:147 0.000649577
113 *9:148 0.000229383
114 *9:149 2.10557e-05
115 *9:150 2.10557e-05
116 *9:151 0.000168446
117 *9:153 0.000411399
118 *9:154 0.000881093
119 *9:155 2.10557e-05
120 *9:157 0.000728971
121 *9:159 0.000191658
122 *9:160 2.16526e-05
123 *9:161 0.000817925
124 *9:162 6.31671e-05
125 *9:163 0.000187677
126 *9:166 0.000560525
127 *9:167 0.000191658
128 *9:168 0.000191658
129 *9:169 4.34311e-05
130 *9:170 0.000144898
131 *9:171 0.000187677
132 *9:174 0.000252797
133 *9:175 0.000454704
134 *9:176 0.000191658
135 *9:177 0.000238871
136 *9:178 0.000144898
137 *9:180 2.29815e-05
138 *9:181 0.000229815
139 *9:182 0.000454704
140 *9:183 0.000108263
141 *9:185 0.00019544
142 *9:186 0.000283911
143 *9:187 0.000299878
144 *9:189 0.000170363
145 *9:190 0.000108263
146 *9:191 0.000290827
147 *9:192 0.000283911
148 *9:193 0.000299878
149 *9:195 0.000170363
150 *9:197 0.00049856
151 *9:199 0.000204911
152 *9:200 0.000259831
153 *9:202 0.000228507
154 *9:205 0.000331178
155 *9:206 4.59631e-05
156 *9:207 0.000259831
157 *9:208 2.07733e-05
158 *9:209 0.000389458
159 *9:211 0.00017223
160 *9:213 2.30675e-05
161 *9:214 2.12953e-05
162 *9:215 0.00039088
163 *9:216 0.000389458
164 *9:217 0.000834609
165 *9:218 2.30675e-05
166 *9:219 2.12953e-05
167 *9:220 0.00058632
168 *9:221 5.71507e-05
169 *9:222 9.93582e-05
170 *9:223 0.000874352
171 *9:227 0.00019544
172 *9:228 0.000171452
173 *9:229 1.91366e-05
174 *9:231 0.000139101
175 *9:233 2.07733e-05
176 *9:234 0.000114301
177 *9:236 0.00017223
178 *9:238 1.91366e-05
179 *9:239 0.00012464
180 *9:240 1.88704e-05
181 *9:242 0.000153093
182 *9:243 0.000297011
183 *9:244 0.000344459
184 *9:245 0.00019544
185 *9:246 0.000103867
186 *9:247 0.000169834
187 *9:249 0.000297011
188 *9:250 0.000325322
189 *9:251 7.94865e-05
190 *9:252 0.00039088
191 *9:254 0.000150963
192 *9:255 0.000666759
193 *9:256 1.8707e-05
194 *9:258 7.94865e-05
195 *9:259 6.232e-05
196 *9:260 0.00039088
197 *9:263 0.000704859
198 *9:264 1.8707e-05
199 *9:265 0.00017223
200 *9:266 6.232e-05
201 *9:267 4.15467e-05
202 *9:268 0.00039088
203 *9:269 3.81005e-05
204 *9:270 0.000625484
205 *9:272 0.00017223
206 *9:274 4.15467e-05
207 *9:275 6.232e-05
208 *9:276 0.000784162
209 *9:278 0.000777493
210 *9:279 0.000158973
211 *9:282 6.232e-05
212 *9:284 0.000588722
213 *9:286 4.15467e-05
214 *9:287 0.000152009
215 *9:288 0.000298075
216 *9:291 6.07427e-05
217 *9:292 4.15467e-05
218 *9:293 0.000806104
219 *9:294 0.000224048
220 *9:295 0.000395442
221 *9:297 6.07427e-05
222 *9:299 0.000803927
223 *9:300 2.07733e-05
224 *9:301 0.000224048
225 *9:302 1.91366e-05
226 *9:303 0.00025634
227 *9:306 1.85971e-05
228 *9:308 0.00039088
229 *9:310 1.91366e-05
230 *9:311 0.00038211
231 *9:313 0.000676175
232 *9:315 0.00117264
233 *9:317 0.000598318
234 *9:318 0.00122552
235 *9:319 6.232e-05
236 *9:320 0.000803476
237 *9:322 0.000410795
238 *9:323 1.85971e-05
239 *9:324 0.000549345
240 *9:325 6.232e-05
241 *9:326 4.15467e-05
242 *9:327 2.17156e-05
243 *9:329 0.000194587
244 *9:330 1.85971e-05
245 *9:331 1.87619e-05
246 *9:333 4.15467e-05
247 *9:334 2.07733e-05
248 *9:335 0.000465275
249 *9:337 1.87619e-05
250 *9:340 0.000166187
251 *9:341 3.87729e-05
252 *9:342 0.000736685
253 *9:346 0.000371429
254 *9:347 0.000145413
255 *9:348 0.000583761
256 *9:350 0.00032957
257 *9:352 0.00076478
258 *9:354 0.000583761
259 *9:356 0.000194587
260 *9:357 1.93865e-05
261 *9:358 8.09903e-05
262 *9:359 0.000786702
263 *9:361 0.000144908
264 *9:362 0.000389174
265 *9:363 0.000194587
266 *9:364 8.09903e-05
267 *9:365 8.09903e-05
268 *9:366 0.000393351
269 *9:367 0.000144908
270 *9:368 0.000194587
271 *9:369 5.81594e-05
272 *9:370 0.000778349
273 *9:372 8.09903e-05
274 *9:373 8.09903e-05
275 *9:375 5.81594e-05
276 *9:376 5.81594e-05
277 *9:377 5.81594e-05
278 *9:378 0.000778349
279 *9:381 8.09903e-05
280 *9:383 5.81594e-05
281 *9:385 5.81594e-05
282 *9:386 5.81594e-05
283 *9:387 0.000794348
284 *9:393 5.81594e-05
285 *9:394 3.87729e-05
286 *9:395 0.000599761
287 *9:399 0.000194587
288 *9:400 3.87729e-05
289 *9:401 0.000142173
290 *9:402 0.000194587
291 *9:405 0.000365589
292 *9:406 6.09315e-05
293 *9:409 0.000304657
294 *9:411 0.000202815
295 *9:412 4.0621e-05
296 *9:415 0.000202815
297 *9:416 2.03105e-05
298 *9:417 0.000202815
299 *9:419 0.00040621
300 *9:420 0.000202815
301 *9:421 0.000608446
302 *9:422 0.00042652
303 *9:423 0.00022535
304 *9:424 8.12419e-05
305 *9:425 0.000428166
306 *9:426 0.000202815
307 *9:427 2.03105e-05
308 *9:428 2.2535e-05
309 *9:429 2.03105e-05
310 *9:430 8.12419e-05
311 *9:432 2.2535e-05
312 *9:433 0.000202815
313 *9:435 0.000788575
314 *9:436 2.03105e-05
315 *9:438 0.000203105
316 *9:441 0.000788575
317 *9:444 0.000203105
318 *9:445 2.03105e-05
319 *9:446 2.12953e-05
320 *9:448 2.03105e-05
321 *9:449 2.2535e-05
322 *9:450 0.000202815
323 *9:451 2.12953e-05
324 *9:452 0.000405631
325 *9:453 2.2535e-05
326 *9:454 0.000202815
327 *9:456 0.000405631
328 *9:458 0.000324968
329 *9:459 0.000223415
330 *9:460 0.000385899
331 *9:461 0.000324968
332 *9:462 0.000405631
333 *9:463 6.09315e-05
334 *9:464 0.000101552
335 *9:465 2.2535e-05
336 *9:466 0.000405631
337 *9:468 0.00022535
338 *9:469 2.2535e-05
339 *9:470 4.0621e-05
340 *9:472 2.2535e-05
341 *9:473 0.000315491
342 *9:475 4.0621e-05
343 *9:476 0.000107592
344 *9:478 0.000112675
345 *9:480 0.000107592
346 *9:481 0.000302465
347 *9:484 0.000302465
348 *9:486 6.3886e-05
349 *9:487 0.000234249
350 *9:489 0.000779493
351 *9:490 0.000170363
352 *9:491 0.000779493
353 *9:492 0.000129915
354 *9:494 0.000586812
355 *9:497 0.000456896
356 *9:499 0.000224381
357 *9:500 0.000246803
358 *9:502 2.24211e-05
359 *9:503 0.000176801
360 *9:504 0.000196445
361 *9:505 0.000179368
362 *9:506 1.96445e-05
363 *9:507 0.000179368
364 *9:508 2.24211e-05
365 *9:509 0.000137512
366 *9:510 2.24211e-05
367 *9:511 7.85781e-05
368 *9:512 5.89336e-05
369 *9:515 2.24211e-05
370 *9:517 0.000381158
371 *9:518 0.000235734
372 *9:519 0.000762316
373 *9:520 0.000235734
374 *9:521 7.85781e-05
375 *9:522 0.000426
376 *9:523 0.000201789
377 *9:524 7.85781e-05
378 *9:525 5.89336e-05
379 *9:526 2.24211e-05
380 *9:527 2.24211e-05
381 *9:528 0.000179368
382 *9:530 5.89336e-05
383 *9:531 0.000809537
384 *9:532 1.96445e-05
385 *9:533 0.000569691
386 *9:536 0.00142937
387 *9:537 3.9289e-05
388 *9:538 1.96445e-05
389 *9:539 0.000628625
390 *9:541 0.000659125
391 *9:543 0.00022421
392 *9:546 5.89336e-05
393 *9:547 0.000605272
394 *9:549 0.000627789
395 *9:552 0.000426
396 *9:553 2.08715e-05
397 *9:555 0.000584401
398 *9:556 3.9289e-05
399 *9:557 0.00129929
400 *9:558 0.000426
401 *9:559 0.000619178
402 *9:560 0.000359523
403 *9:561 3.9289e-05
404 *9:562 3.9289e-05
405 *9:563 0.0011001
406 *9:565 0.000619178
407 *9:566 1.99735e-05
408 *9:567 0.000339549
409 *9:569 3.9289e-05
410 *9:571 0.000224825
411 *9:572 4.17429e-05
412 *9:573 0.0001461
413 *9:576 0.000156947
414 *9:577 3.94772e-05
415 *9:578 2.04387e-05
416 *9:579 0.000208715
417 *9:580 0.000543245
418 *9:583 0.000156947
419 *9:584 0.000355295
420 *9:586 0.000769805
421 *9:587 0.000139814
422 *9:588 0.000166972
423 *9:589 1.99735e-05
424 *9:590 0.000397145
425 *9:592 0.000375033
426 *9:593 0.000531405
427 *9:594 0.000789544
428 *9:595 0.000159788
429 *9:597 1.99735e-05
430 *9:598 0.000516864
431 *9:599 5.92158e-05
432 *9:600 2.04387e-05
433 *9:601 0.000531405
434 *9:602 0.000592721
435 *9:603 1.97386e-05
436 *9:604 1.99735e-05
437 *9:605 2.08715e-05
438 *9:607 0.000496985
439 *9:608 5.96382e-05
440 *9:609 0.000347457
441 *9:610 2.04387e-05
442 *9:611 1.97386e-05
443 *9:612 0.000592721
444 *9:613 0.000143071
445 *9:614 0.000208715
446 *9:615 2.08715e-05
447 *9:617 1.9775e-05
448 *9:618 3.97588e-05
449 *9:619 0.00019775
450 *9:620 0.000347457
451 *9:622 1.97386e-05
452 *9:624 0.000143071
453 *9:625 0.000208715
454 *9:627 5.9325e-05
455 *9:628 0.00067235
456 *9:629 0.00019775
457 *9:630 1.97386e-05
458 *9:632 1.97386e-05
459 *9:633 9.98674e-05
460 *9:634 3.955e-05
461 *9:636 0.000889875
462 *9:637 3.97588e-05
463 *9:638 1.97386e-05
464 *9:640 1.97386e-05
465 *9:641 9.98674e-05
466 *9:642 0.000377708
467 *9:644 5.96382e-05
468 *9:645 0.000217525
469 *9:646 0.000258432
470 *9:650 0.000377708
471 *9:651 5.96382e-05
472 *9:652 1.98794e-05
473 *9:653 1.9775e-05
474 *9:654 0.000218673
475 *9:658 0.00019775
476 *9:660 1.98794e-05
477 *9:661 1.9775e-05
478 *9:662 0.00011865
479 *9:663 0.000138425
480 *9:664 5.9325e-05
481 *9:668 0.0004746
482 *9:670 0.000480317
483 *9:673 0.0007119
484 *9:674 0.00062699
485 *9:675 5.96382e-05
486 *9:676 0.00035595
487 *9:677 0.000146674
488 *9:678 1.99813e-05
489 *9:679 5.96382e-05
490 *9:681 0.000639402
491 *9:682 1.99813e-05
492 *9:684 9.99066e-05
493 *9:685 0.000539496
494 *9:688 0.000167627
495 *9:689 0.000712415
496 *9:690 0.000167627
497 *9:691 0.000754321
498 *9:692 6.28601e-05
499 *9:693 0.000484558
500 *9:694 8.38135e-05
501 *9:696 0.000359664
502 *9:697 2.09534e-05
503 *9:698 0.000484558
504 *9:699 0.000259757
505 *9:701 0.000479552
506 *9:704 0.000579458
507 *9:705 3.99626e-05
508 *9:706 4.19067e-05
509 *9:707 0.000119888
510 *9:709 0.000499533
511 *9:710 2.09534e-05
512 *9:711 8.38135e-05
513 *9:712 4.19067e-05
514 *9:713 0.000104767
515 *9:714 0.000139869
516 *9:715 2.09534e-05
517 *9:716 2.09534e-05
518 *9:717 0.000209534
519 *9:719 0.000104767
520 *9:720 0.000440021
521 *9:721 2.09534e-05
522 *9:723 0.00012572
523 *9:724 9.99066e-05
524 *9:726 1.99813e-05
525 *9:727 0.000664188
526 *9:730 7.99253e-05
527 *9:731 9.99066e-05
528 *9:732 1.99813e-05
529 *9:733 0.000244148
530 *9:736 0.000219795
531 *9:739 1.9981e-05
532 *9:740 0.000139677
533 *9:742 0.000414692
534 *9:743 0.000139869
535 *9:744 0.000200661
536 *9:745 0.000139677
537 *9:746 0.000414692
538 *9:747 2.09534e-05
539 *9:748 0.000800028
540 *9:749 0.000279734
541 *9:750 1.99539e-05
542 *9:751 2.09534e-05
543 *9:752 0.000599367
544 *9:753 1.95898e-05
545 *9:754 0.00119886
546 *9:755 1.99539e-05
547 *9:756 0.000239776
548 *9:758 1.95898e-05
549 *9:759 0.000939108
550 *9:762 0.000239776
551 *9:764 1.9981e-05
552 *9:765 0.000119723
553 *9:769 0.000159631
554 *9:770 0.000119723
555 *9:771 0.000159631
556 *9:772 1.9981e-05
557 *9:773 0.000820208
558 *9:774 5.99431e-05
559 *9:775 0.000720302
560 *9:776 9.99051e-05
561 *9:777 0.000179829
562 *9:778 1.99539e-05
563 *9:779 5.14557e-05
564 *9:780 5.98616e-05
565 *9:781 0.000139867
566 *9:782 0.000119723
567 *9:783 1.99539e-05
568 *9:784 0.000668924
569 *9:785 0.000199539
570 *9:786 0.000398205
571 *9:787 0.000119723
572 *9:789 3.49328e-05
573 *9:790 0.000737532
574 *9:792 0.000359169
575 *9:793 0.000398205
576 *9:794 1.9981e-05
577 *9:795 3.49328e-05
578 *9:797 0.000120063
579 *9:798 9.99051e-05
580 *9:799 0.000219492
581 *9:800 5.87694e-05
582 *9:801 1.9981e-05
583 *9:803 0.000338148
584 *9:804 9.99051e-05
585 *9:805 0.000159848
586 *9:806 9.79489e-05
587 *9:809 1.74664e-05
588 *9:810 0.000320682
589 *9:812 0.000159848
590 *9:813 3.91796e-05
591 *9:814 0.000643765
592 *9:816 0.000205823
593 *9:819 0.000379123
594 *9:821 0.000643765
595 *9:822 0.000205823
596 *9:825 0.000379123
597 *9:827 5.87694e-05
598 *9:828 0.000593858
599 *9:829 0.000159848
600 *9:830 0.000707423
601 *9:831 1.95898e-05
602 *9:832 0.000593858
603 *9:833 0.000159848
604 *9:834 0.000743976
605 *9:836 0.000799156
606 *9:837 0.000120063
607 *9:838 0.000119723
608 *9:839 7.57328e-05
609 *9:840 0.000219623
610 *9:842 0.000799156
611 *9:843 0.000120063
612 *9:844 1.99539e-05
613 *9:845 9.97693e-05
614 *9:846 0.000359383
615 *9:847 0.000219623
616 *9:848 5.87694e-05
617 *9:849 8.73321e-06
618 *9:851 0.000239772
619 *9:852 0.00121201
620 *9:853 7.57328e-05
621 *9:854 5.87694e-05
622 *9:855 1.74664e-05
623 *9:856 0.000239772
624 *9:857 0.00085263
625 *9:859 7.57328e-05
626 *9 8.73321e-06
627 *9:862 1.99539e-05
628 *9:866 1.99539e-05

*RES
1 *9:866 *924:CK 1.4
2 *9:864 *919:CK 1.4
3 *9:862 *9:866 0.124283
4 *9:860 *917:CK 1.4
5 *9:859 *9:864 1.4
6 *9:857 *944:CK 1.4
7 *9:856 *9:862 1.4
8 *9:855 *9 0.0621413
9 *9:854 *9:860 1.4
10 *9:853 *9:859 0.497133
11 *9:852 *947:CK 1.4
12 *9:852 *9:857 5.34416
13 *9:851 *9:856 1.4914
14 *9:849 *9:855 0.0621413
15 *9:848 *9:854 0.372866
16 *9:847 *9:853 1.4
17 *9:846 *9:852 2.23709
18 *9:845 *9:851 1.4
19 *9:844 *926:CK 1.4
20 *9:843 *9:849 1.4
21 *9:842 *9:848 1.4
22 *9:840 *9:847 1.36711
23 *9:839 *9:846 1.4
24 *9:838 *9:845 0.621413
25 *9:838 *9:844 0.124283
26 *9:837 *9:843 0.870021
27 *9:836 *9:842 4.47418
28 *9:835 *915:CK 1.4
29 *9:834 *9:840 1.4
30 *9:834 *9:839 0.497133
31 *9:833 *9:838 1.4
32 *9:832 *9:837 1.4
33 *9:831 *9:836 1.4
34 *9:830 *9:835 1.4
35 *9:830 *9:834 4.34996
36 *9:829 *9:833 0.994265
37 *9:828 *9:832 4.22561
38 *9:827 *9:831 0.124289
39 *9:827 *9:830 0.248578
40 *9:825 *9:829 1.4
41 *9:822 *9:828 1.4
42 *9:821 *9:827 1.4
43 *9:820 *914:CK 1.4
44 *9:819 *9:825 2.36137
45 *9:819 *935:CK 1.4
46 *9:817 *938:CK 1.4
47 *9:816 *9:822 1.49146
48 *9:814 *9:821 3.6042
49 *9:813 *9:820 1.4
50 *9:812 *9:819 1.4
51 *9:811 *910:CK 1.4
52 *9:810 *9:817 1.4
53 *9:809 *9:816 1.4
54 *9:807 *912:CK 1.4
55 *9:806 *9:814 1.4
56 *9:806 *9:813 0.248578
57 *9:805 *9:812 0.994265
58 *9:804 *9:811 1.4
59 *9:803 *9:810 2.23709
60 *9:803 *9:809 0.124283
61 *9:802 *911:CK 1.4
62 *9:801 *9:807 1.4
63 *9:800 *9:806 0.372866
64 *9:799 *9:805 1.4
65 *9:798 *9:804 0.621416
66 *9:797 *9:803 1.4
67 *9:795 *9:802 1.4
68 *9:794 *9:801 0.124283
69 *9:793 *9:800 1.4
70 *9:792 *9:799 1.36711
71 *9:792 *9:798 1.4
72 *9:790 *9:797 0.870021
73 *9:790 *943:CK 1.4
74 *9:789 *9:795 0.248565
75 *9:787 *9:794 1.4
76 *9:786 *9:793 2.36137
77 *9:785 *9:792 0.869979
78 *9:785 *954:CK 1.4
79 *9:784 *9:790 4.4744
80 *9:784 *9:789 1.4
81 *9:783 *913:CK 1.4
82 *9:782 *9:787 0.745696
83 *9:781 *9:786 1.4
84 *9:780 *9:785 0.372848
85 *9:779 *9:784 0.372866
86 *9:778 *9:783 0.124283
87 *9:777 *9:782 1.4
88 *9:777 *9:781 0.869982
89 *9:776 *9:780 1.4
90 *9:775 *9:779 1.4
91 *9:774 *9:778 1.4
92 *9:774 *9:777 0.248566
93 *9:773 *9:776 0.621416
94 *9:773 *9:775 4.72275
95 *9:772 *9:774 0.124283
96 *9:771 *9:773 1.4
97 *9:770 *9:772 1.4
98 *9:769 *9:771 0.994261
99 *9:765 *9:770 0.745696
100 *9:764 *9:769 1.4
101 *9:763 *538:CK 1.4
102 *9:762 *909:CK 1.4
103 *9:760 *934:CK 1.4
104 *9:759 *9:765 1.4
105 *9:759 *9:764 0.124283
106 *9:758 *9:763 1.4
107 *9:756 *9:762 1.49146
108 *9:755 *908:CK 1.4
109 *9:754 *9:760 1.4
110 *9:754 *9:759 5.71703
111 *9:753 *9:758 0.124289
112 *9:752 *532:CK 1.4
113 *9:751 *9:756 1.4
114 *9:750 *9:755 0.124283
115 *9:749 *9:754 1.73996
116 *9:748 *9:753 1.4
117 *9:748 *9:752 3.35563
118 *9:747 *9:751 0.124289
119 *9:746 *9:750 1.4
120 *9:745 *9:749 1.4
121 *9:744 *9:748 1.24283
122 *9:743 *9:747 1.4
123 *9:742 *9:746 2.48575
124 *9:740 *9:745 0.869979
125 *9:739 *9:744 1.4
126 *9:736 *9:743 0.870021
127 *9:736 *9:742 1.4
128 *9:734 *955:CK 1.4
129 *9:733 *9:740 1.4
130 *9:733 *9:739 0.124283
131 *9:732 *930:CK 1.4
132 *9:731 *940:CK 1.4
133 *9:730 *9:736 0.497155
134 *9:728 *925:CK 1.4
135 *9:727 *9:734 1.4
136 *9:727 *9:733 1.36714
137 *9:726 *9:732 0.124289
138 *9:724 *9:731 0.621444
139 *9:723 *9:730 1.4
140 *9:722 *937:CK 1.4
141 *9:721 *9:728 1.4
142 *9:720 *9:727 2.61006
143 *9:719 *9:726 1.4
144 *9:718 *953:CK 1.4
145 *9:717 *9:724 1.4
146 *9:717 *9:723 0.745733
147 *9:716 *9:722 1.4
148 *9:715 *9:721 0.124289
149 *9:714 *9:720 1.4
150 *9:713 *9:719 0.621444
151 *9:712 *9:718 1.4
152 *9:711 *9:717 0.497155
153 *9:710 *9:716 0.124289
154 *9:709 *9:715 1.4
155 *9:709 *9:714 0.870021
156 *9:707 *9:713 1.4
157 *9:706 *9:712 0.248578
158 *9:705 *9:711 1.4
159 *9:704 *9:710 1.4
160 *9:704 *9:709 2.2372
161 *9:702 *951:CK 1.4
162 *9:701 *9:707 0.745732
163 *9:701 *9:706 1.4
164 *9:699 *9:705 0.248578
165 *9:699 *9:704 1.36718
166 *9:698 *537:CK 1.4
167 *9:697 *9:702 1.4
168 *9:696 *9:701 2.2372
169 *9:695 *927:CK 1.4
170 *9:694 *9:699 1.4
171 *9:693 *9:698 2.85864
172 *9:692 *9:697 0.124289
173 *9:692 *9:696 1.4
174 *9:691 *9:695 1.4
175 *9:691 *9:694 0.497155
176 *9:690 *9:693 1.4
177 *9:689 *9:692 0.248578
178 *9:689 *9:691 3.97724
179 *9:688 *9:690 0.99431
180 *9:685 *9:689 1.4
181 *9:684 *9:688 1.4
182 *9:683 *960:CK 1.4
183 *9:682 *843:CK 1.4
184 *9:681 *9:685 3.3558
185 *9:681 *9:684 0.621444
186 *9:679 *9:683 1.4
187 *9:678 *9:682 0.124289
188 *9:677 *9:681 1.4
189 *9:676 *962:CK 1.4
190 *9:675 *9:679 0.372849
191 *9:674 *9:678 1.4
192 *9:674 *9:677 0.870021
193 *9:673 *9:676 2.2371
194 *9:673 *9:675 1.4
195 *9:670 *9:674 2.85863
196 *9:668 *9:673 2.2371
197 *9:668 *961:CK 1.4
198 *9:666 *950:CK 1.4
199 *9:664 *9:670 1.4
200 *9:663 *547:CK 1.4
201 *9:662 *9:668 0.745699
202 *9:661 *949:CK 1.4
203 *9:660 *9:666 1.4
204 *9:659 *952:CK 1.4
205 *9:658 *9:664 0.37285
206 *9:658 *9:663 0.869982
207 *9:654 *9:662 1.4
208 *9:653 *9:661 0.124283
209 *9:652 *9:660 0.124283
210 *9:651 *9:659 1.4
211 *9:650 *9:658 1.4
212 *9:649 *602:CK 1.4
213 *9:648 *966:CK 1.4
214 *9:647 *967:CK 1.4
215 *9:646 *9:654 1.36711
216 *9:646 *9:653 1.4
217 *9:645 *9:652 1.4
218 *9:644 *9:651 0.372849
219 *9:642 *9:650 2.36138
220 *9:641 *9:649 1.4
221 *9:640 *9:648 1.4
222 *9:638 *9:647 1.4
223 *9:637 *9:646 0.248566
224 *9:636 *9:645 1.36711
225 *9:636 *9:644 1.4
226 *9:636 *942:CK 1.4
227 *9:634 *9:642 1.4
228 *9:633 *9:641 0.621444
229 *9:632 *9:640 0.124289
230 *9:631 *963:CK 1.4
231 *9:630 *9:638 0.124289
232 *9:629 *9:637 1.4
233 *9:628 *9:636 4.22563
234 *9:627 *841:CK 1.4
235 *9:627 *9:634 0.248566
236 *9:625 *9:633 1.4
237 *9:624 *9:632 1.4
238 *9:622 *9:631 1.4
239 *9:620 *9:630 1.4
240 *9:619 *9:629 1.24283
241 *9:618 *9:628 1.4
242 *9:617 *9:627 0.124283
243 *9:615 *534:CK 1.4
244 *9:614 *9:625 1.24283
245 *9:613 *9:624 0.869979
246 *9:612 *941:CK 1.4
247 *9:611 *9:622 0.124289
248 *9:610 *928:CK 1.4
249 *9:609 *9:620 2.11281
250 *9:608 *9:619 1.4
251 *9:607 *9:618 0.248566
252 *9:607 *9:617 1.4
253 *9:606 *939:CK 1.4
254 *9:605 *9:615 0.124283
255 *9:604 *9:614 1.4
256 *9:603 *9:613 1.4
257 *9:602 *9:612 3.6042
258 *9:601 *9:611 1.4
259 *9:600 *9:610 0.124283
260 *9:599 *9:609 1.4
261 *9:598 *9:608 0.372849
262 *9:598 *9:607 2.85851
263 *9:597 *9:606 1.4
264 *9:595 *9:605 1.4
265 *9:595 *9:604 0.124289
266 *9:594 *9:603 0.124289
267 *9:594 *9:602 1.4
268 *9:593 *9:601 3.23135
269 *9:592 *9:600 1.4
270 *9:592 *9:599 0.372866
271 *9:590 *9:598 1.4
272 *9:589 *9:597 0.124289
273 *9:588 *549:CK 1.4
274 *9:587 *9:595 0.870021
275 *9:586 *9:594 4.84726
276 *9:584 *9:593 1.4
277 *9:584 *9:592 1.98862
278 *9:583 *948:CK 1.4
279 *9:580 *9:590 2.48566
280 *9:580 *9:589 1.4
281 *9:579 *9:588 0.994261
282 *9:579 *9:587 1.4
283 *9:578 *9:586 1.4
284 *9:578 *965:CK 1.4
285 *9:577 *9:584 0.248578
286 *9:576 *9:583 0.870021
287 *9:576 *897:CK 1.4
288 *9:574 *936:CK 1.4
289 *9:573 *9:580 0.869979
290 *9:572 *9:579 0.248565
291 *9:571 *9:578 0.124283
292 *9:571 *9:577 1.4
293 *9:569 *9:576 1.4
294 *9:568 *916:CK 1.4
295 *9:567 *9:574 1.4
296 *9:566 *9:573 1.4
297 *9:565 *9:572 1.4
298 *9:563 *9:571 1.24283
299 *9:563 *968:CK 1.4
300 *9:562 *9:569 0.248578
301 *9:561 *9:568 1.4
302 *9:560 *9:567 2.11291
303 *9:560 *9:566 0.124289
304 *9:559 *9:565 3.85295
305 *9:558 *932:CK 1.4
306 *9:557 *9:563 5.34421
307 *9:557 *9:562 1.4
308 *9:556 *9:561 0.248578
309 *9:555 *9:560 1.4
310 *9:553 *9:559 1.4
311 *9:552 *9:558 2.36149
312 *9:549 *9:557 2.2372
313 *9:549 *9:556 1.4
314 *9:547 *9:555 3.47991
315 *9:547 *603:CK 1.4
316 *9:547 *9:553 0.124283
317 *9:546 *9:552 1.4
318 *9:545 *524:CK 1.4
319 *9:544 *525:CK 1.4
320 *9:543 *9:549 1.24289
321 *9:542 *615:CK 1.4
322 *9:541 *9:547 1.4
323 *9:539 *9:546 0.372866
324 *9:539 *9:545 1.4
325 *9:538 *9:544 1.4
326 *9:537 *9:543 1.4
327 *9:536 *9:542 1.4
328 *9:536 *9:541 4.10153
329 *9:535 *931:CK 1.4
330 *9:533 *9:539 3.60437
331 *9:532 *9:538 0.124289
332 *9:531 *9:537 0.248578
333 *9:531 *9:536 4.84726
334 *9:530 *9:535 1.4
335 *9:529 *896:CK 1.4
336 *9:528 *9:533 1.4
337 *9:527 *9:532 1.4
338 *9:526 *9:531 1.4
339 *9:525 *9:530 0.372866
340 *9:524 *9:529 1.4
341 *9:523 *9:528 0.99431
342 *9:523 *9:527 0.124289
343 *9:522 *9:526 0.124289
344 *9:522 *9:525 1.4
345 *9:521 *9:524 0.497155
346 *9:520 *9:523 1.4
347 *9:519 *9:522 2.2372
348 *9:519 *9:521 1.4
349 *9:518 *9:520 1.49146
350 *9:517 *9:519 1.98862
351 *9:517 *9:518 1.4
352 *9:515 *9:517 0.124289
353 *9:514 *599:CK 1.4
354 *9:512 *9:515 1.4
355 *9:511 *9:514 1.4
356 *9:510 *523:CK 1.4
357 *9:509 *9:512 0.372866
358 *9:509 *9:511 0.497155
359 *9:508 *9:510 0.124289
360 *9:507 *9:509 1.4
361 *9:506 *9:508 1.4
362 *9:505 *9:507 0.99431
363 *9:504 *9:506 0.124289
364 *9:504 *9:505 1.4
365 *9:503 *9:504 1.1186
366 *9:502 *9:503 1.4
367 *9:500 *9:502 0.124289
368 *9:500 *598:CK 1.4
369 *9:499 *9:500 1.24289
370 *9:497 *9:499 1.4
371 *9:496 *929:CK 1.4
372 *9:494 *9:497 2.73435
373 *9:494 *9:496 1.4
374 *9:493 *580:CK 1.4
375 *9:492 *9:494 0.745733
376 *9:491 *9:493 1.4
377 *9:490 *9:492 1.4
378 *9:489 *9:491 4.4744
379 *9:487 *9:490 0.994261
380 *9:487 *9:489 1.4
381 *9:487 *584:CK 1.4
382 *9:486 *9:487 0.372848
383 *9:484 *9:486 1.4
384 *9:483 *588:CK 1.4
385 *9:481 *9:484 1.74004
386 *9:480 *9:483 1.4
387 *9:479 *877:CK 1.4
388 *9:478 *9:481 1.4
389 *9:476 *9:480 0.621444
390 *9:475 *9:479 1.4
391 *9:473 *9:478 0.621442
392 *9:473 *870:CK 1.4
393 *9:472 *9:476 1.4
394 *9:470 *9:475 0.248578
395 *9:469 *669:CK 1.4
396 *9:468 *9:473 1.1186
397 *9:468 *9:472 0.124288
398 *9:467 *876:CK 1.4
399 *9:466 *9:470 1.4
400 *9:465 *9:469 0.124288
401 *9:464 *9:468 1.4
402 *9:463 *9:467 1.4
403 *9:462 *9:466 2.23719
404 *9:461 *9:465 1.4
405 *9:461 *9:464 0.621444
406 *9:460 *9:463 0.372866
407 *9:460 *9:462 1.4
408 *9:459 *9:461 1.36718
409 *9:458 *9:460 1.98862
410 *9:456 *9:459 1.4
411 *9:454 *9:458 1.4
412 *9:453 *667:CK 1.4
413 *9:452 *9:456 2.23719
414 *9:451 *788:CK 1.4
415 *9:450 *9:454 1.1186
416 *9:449 *9:453 0.124288
417 *9:448 *9:452 1.4
418 *9:446 *9:451 0.124283
419 *9:445 *9:450 1.4
420 *9:444 *9:449 1.4
421 *9:444 *9:448 0.124289
422 *9:442 *872:CK 1.4
423 *9:441 *9:446 1.4
424 *9:438 *9:445 0.124289
425 *9:438 *9:444 1.1186
426 *9:437 *668:CK 1.4
427 *9:436 *9:442 1.4
428 *9:435 *9:441 4.72297
429 *9:434 *666:CK 1.4
430 *9:433 *673:CK 1.4
431 *9:432 *9:438 1.4
432 *9:430 *9:437 1.4
433 *9:429 *9:436 0.124289
434 *9:428 *9:435 1.4
435 *9:427 *9:434 1.4
436 *9:426 *9:433 1.1186
437 *9:425 *9:432 0.124288
438 *9:425 *670:CK 1.4
439 *9:424 *9:430 0.497155
440 *9:423 *9:429 1.4
441 *9:423 *9:428 0.124288
442 *9:422 *9:427 0.124289
443 *9:422 *9:426 1.4
444 *9:421 *9:425 2.23719
445 *9:421 *9:424 1.4
446 *9:420 *9:423 1.1186
447 *9:419 *9:422 2.48577
448 *9:417 *9:421 1.1186
449 *9:416 *9:420 1.4
450 *9:415 *9:419 1.4
451 *9:413 *671:CK 1.4
452 *9:412 *9:417 1.4
453 *9:412 *9:416 0.124289
454 *9:411 *9:415 1.1186
455 *9:410 *672:CK 1.4
456 *9:409 *9:413 1.4
457 *9:409 *9:412 0.124289
458 *9:406 *9:411 1.4
459 *9:405 *9:410 1.4
460 *9:405 *9:409 1.74004
461 *9:404 *871:CK 1.4
462 *9:402 *867:CK 1.4
463 *9:401 *9:406 0.372866
464 *9:401 *9:405 0.497155
465 *9:400 *9:404 1.4
466 *9:399 *865:CK 1.4
467 *9:399 *9:402 1.11855
468 *9:395 *9:401 1.4
469 *9:394 *9:400 0.248566
470 *9:393 *9:399 1.4
471 *9:392 *875:CK 1.4
472 *9:390 *866:CK 1.4
473 *9:389 *920:CK 1.4
474 *9:387 *9:395 3.35574
475 *9:387 *9:394 1.4
476 *9:386 *9:393 0.37285
477 *9:385 *9:392 1.4
478 *9:384 *873:CK 1.4
479 *9:383 *9:390 1.4
480 *9:381 *9:389 1.4
481 *9:380 *921:CK 1.4
482 *9:378 *9:387 1.11855
483 *9:378 *9:386 1.4
484 *9:377 *9:385 0.37285
485 *9:376 *9:384 1.4
486 *9:375 *9:383 0.37285
487 *9:374 *786:CK 1.4
488 *9:373 *9:381 0.497155
489 *9:372 *9:380 1.4
490 *9:371 *922:CK 1.4
491 *9:370 *9:378 3.35565
492 *9:370 *9:377 1.4
493 *9:369 *9:376 0.37285
494 *9:368 *9:375 1.4
495 *9:367 *9:374 1.4
496 *9:366 *9:373 1.4
497 *9:365 *9:372 0.497155
498 *9:364 *9:371 1.4
499 *9:363 *9:370 1.11855
500 *9:362 *9:369 1.4
501 *9:362 *9:368 1.11855
502 *9:361 *9:367 0.869982
503 *9:359 *9:366 2.2372
504 *9:359 *9:365 1.4
505 *9:358 *9:364 0.497155
506 *9:357 *9:363 1.4
507 *9:356 *9:362 1.11855
508 *9:354 *9:361 1.4
509 *9:353 *652:CK 1.4
510 *9:352 *9:359 2.2372
511 *9:352 *9:358 1.4
512 *9:350 *9:357 0.124283
513 *9:350 *9:356 1.4
514 *9:349 *874:CK 1.4
515 *9:348 *9:354 3.35565
516 *9:347 *9:353 1.4
517 *9:346 *9:352 2.11291
518 *9:344 *945:CK 1.4
519 *9:342 *9:350 1.98853
520 *9:342 *9:349 1.4
521 *9:341 *9:348 1.4
522 *9:340 *9:347 0.870021
523 *9:340 *9:346 1.4
524 *9:339 *923:CK 1.4
525 *9:337 *9:344 1.4
526 *9:336 *918:CK 1.4
527 *9:335 *9:342 2.73423
528 *9:335 *9:341 0.248566
529 *9:334 *9:340 0.124289
530 *9:333 *9:339 1.4
531 *9:332 *946:CK 1.4
532 *9:331 *9:337 0.124283
533 *9:330 *9:336 1.4
534 *9:329 *9:335 1.4
535 *9:327 *9:334 1.4
536 *9:326 *9:333 0.248578
537 *9:325 *9:332 1.4
538 *9:324 *9:331 1.4
539 *9:323 *9:330 0.124283
540 *9:322 *9:329 1.11855
541 *9:322 *785:CK 1.4
542 *9:320 *9:327 0.124289
543 *9:320 *9:326 1.4
544 *9:319 *9:325 0.372866
545 *9:318 *9:324 3.6043
546 *9:318 *9:323 1.4
547 *9:317 *9:322 1.24283
548 *9:317 *790:CK 1.4
549 *9:315 *9:320 4.4744
550 *9:315 *9:319 1.4
551 *9:313 *9:318 4.47437
552 *9:311 *9:317 2.23711
553 *9:310 *904:CK 1.4
554 *9:308 *9:315 2.2372
555 *9:307 *957:CK 1.4
556 *9:306 *9:313 1.4
557 *9:304 *650:CK 1.4
558 *9:303 *9:311 1.4
559 *9:302 *9:310 0.124288
560 *9:301 *898:CK 1.4
561 *9:300 *9:308 1.4
562 *9:299 *9:307 1.4
563 *9:299 *9:306 0.124283
564 *9:298 *958:CK 1.4
565 *9:297 *9:304 1.4
566 *9:295 *9:303 1.74
567 *9:295 *9:302 1.4
568 *9:294 *9:301 1.24289
569 *9:293 *9:300 0.124289
570 *9:293 *9:299 5.09567
571 *9:292 *9:298 1.4
572 *9:291 *9:297 0.372866
573 *9:290 *649:CK 1.4
574 *9:288 *9:295 0.869982
575 *9:288 *9:294 1.4
576 *9:287 *9:293 1.4
577 *9:286 *9:292 0.248578
578 *9:284 *9:291 1.4
579 *9:282 *9:290 1.4
580 *9:281 *868:CK 1.4
581 *9:279 *9:288 0.994265
582 *9:278 *9:287 0.870021
583 *9:278 *9:286 1.4
584 *9:277 *956:CK 1.4
585 *9:276 *9:284 3.3558
586 *9:276 *651:CK 1.4
587 *9:275 *9:282 0.372866
588 *9:274 *9:281 1.4
589 *9:273 *869:CK 1.4
590 *9:272 *9:279 1.4
591 *9:270 *9:278 3.60437
592 *9:269 *9:277 1.4
593 *9:268 *9:276 1.1186
594 *9:268 *9:275 1.4
595 *9:267 *9:274 0.248578
596 *9:266 *9:273 1.4
597 *9:265 *9:272 1.11859
598 *9:264 *906:CK 1.4
599 *9:263 *9:270 1.4
600 *9:263 *9:269 0.248578
601 *9:260 *9:268 1.1186
602 *9:260 *9:267 1.4
603 *9:259 *9:266 0.372866
604 *9:258 *9:265 1.4
605 *9:256 *9:264 0.124289
606 *9:255 *9:263 4.35011
607 *9:254 *880:CK 1.4
608 *9:253 *887:CK 1.4
609 *9:252 *9:260 1.1186
610 *9:252 *9:259 1.4
611 *9:251 *9:258 0.497133
612 *9:250 *901:CK 1.4
613 *9:249 *9:256 1.4
614 *9:247 *9:255 1.4
615 *9:247 *9:254 0.99431
616 *9:246 *9:253 1.4
617 *9:245 *9:252 1.1186
618 *9:244 *9:251 1.4
619 *9:244 *9:250 2.1129
620 *9:243 *9:249 1.86425
621 *9:242 *899:CK 1.4
622 *9:240 *9:247 0.124289
623 *9:239 *9:246 0.621444
624 *9:239 *9:245 1.4
625 *9:238 *9:244 0.124288
626 *9:236 *9:243 1.4
627 *9:236 *9:242 0.994305
628 *9:235 *881:CK 1.4
629 *9:234 *9:240 1.4
630 *9:233 *9:239 0.124289
631 *9:231 *9:238 1.4
632 *9:230 *902:CK 1.4
633 *9:229 *9:236 0.124288
634 *9:228 *9:235 1.4
635 *9:228 *9:234 0.745732
636 *9:227 *9:233 1.4
637 *9:224 *900:CK 1.4
638 *9:223 *9:231 0.869982
639 *9:223 *9:230 1.4
640 *9:222 *9:229 1.4
641 *9:221 *9:228 0.372866
642 *9:220 *9:227 1.1186
643 *9:220 *886:CK 1.4
644 *9:219 *822:CK 1.4
645 *9:218 *9:224 1.4
646 *9:217 *9:223 4.59848
647 *9:217 *9:222 0.621416
648 *9:216 *9:221 1.4
649 *9:215 *9:220 2.2372
650 *9:214 *9:219 0.124283
651 *9:213 *9:218 0.124283
652 *9:211 *9:217 1.4
653 *9:209 *9:216 2.2372
654 *9:208 *9:215 1.4
655 *9:207 *9:214 1.4
656 *9:206 *9:213 1.4
657 *9:205 *907:CK 1.4
658 *9:205 *9:211 1.11859
659 *9:203 *888:CK 1.4
660 *9:202 *9:209 1.4
661 *9:202 *9:208 0.124289
662 *9:200 *9:207 1.49147
663 *9:199 *9:206 0.248578
664 *9:199 *9:205 0.870021
665 *9:198 *856:CK 1.4
666 *9:197 *9:203 1.4
667 *9:197 *9:202 1.24289
668 *9:196 *781:CK 1.4
669 *9:195 *9:200 1.4
670 *9:193 *9:199 1.4
671 *9:192 *9:198 1.4
672 *9:191 *9:197 1.74004
673 *9:190 *9:196 1.4
674 *9:189 *9:195 0.994261
675 *9:189 *821:CK 1.4
676 *9:187 *9:193 1.61568
677 *9:186 *9:192 1.98854
678 *9:185 *9:191 1.4
679 *9:183 *9:190 0.621444
680 *9:182 *9:189 1.4
681 *9:181 *777:CK 1.4
682 *9:180 *9:187 1.4
683 *9:178 *9:186 1.4
684 *9:177 *9:185 1.1186
685 *9:177 *839:CK 1.4
686 *9:176 *9:183 1.4
687 *9:175 *9:182 2.61006
688 *9:174 *9:181 1.24289
689 *9:174 *9:180 0.124289
690 *9:171 *835:CK 1.4
691 *9:170 *9:178 0.869984
692 *9:169 *9:177 0.248578
693 *9:168 *9:176 1.11854
694 *9:167 *9:175 1.4
695 *9:166 *9:174 1.4
696 *9:165 *895:CK 1.4
697 *9:163 *857:CK 1.4
698 *9:163 *9:171 1.11855
699 *9:162 *9:170 1.4
700 *9:161 *9:169 1.4
701 *9:160 *9:168 1.4
702 *9:159 *9:167 1.11854
703 *9:157 *9:166 3.23147
704 *9:157 *9:165 1.4
705 *9:156 *889:CK 1.4
706 *9:155 *9:163 1.4
707 *9:154 *9:162 0.372866
708 *9:154 *9:161 4.84726
709 *9:153 *9:160 0.124289
710 *9:153 *9:159 1.4
711 *9:152 *593:CK 1.4
712 *9:151 *9:157 0.99431
713 *9:150 *9:156 1.4
714 *9:149 *9:155 0.124289
715 *9:148 *9:154 1.4
716 *9:147 *9:153 2.2372
717 *9:147 *9:152 1.4
718 *9:145 *9:151 1.4
719 *9:144 *9:150 0.124289
720 *9:143 *9:149 1.4
721 *9:143 *9:148 1.36711
722 *9:141 *9:147 1.49147
723 *9:139 *774:CK 1.4
724 *9:139 *9:145 2.36138
725 *9:138 *9:144 1.4
726 *9:138 *9:143 1.11855
727 *9:137 *607:CK 1.4
728 *9:137 *9:141 1.4
729 *9:134 *776:CK 1.4
730 *9:132 *9:139 0.248566
731 *9:131 *9:138 0.248566
732 *9:130 *9:137 0.124283
733 *9:129 *600:CK 1.4
734 *9:128 *959:CK 1.4
735 *9:127 *9:134 1.4
736 *9:126 *858:CK 1.4
737 *9:125 *9:132 1.4
738 *9:124 *9:131 1.4
739 *9:123 *9:130 1.4
740 *9:122 *9:129 2.11281
741 *9:121 *9:128 1.4
742 *9:120 *9:127 0.124289
743 *9:118 *9:126 1.4
744 *9:117 *9:125 4.22582
745 *9:117 *9:124 0.124289
746 *9:116 *9:123 0.372866
747 *9:116 *9:122 1.4
748 *9:115 *9:121 0.124283
749 *9:114 *9:120 1.4
750 *9:113 *658:CK 1.4
751 *9:111 *9:118 0.124289
752 *9:110 *9:117 1.4
753 *9:109 *9:116 3.23136
754 *9:108 *9:115 1.4
755 *9:108 *9:114 3.47993
756 *9:107 *9:113 1.4
757 *9:106 *576:CK 1.4
758 *9:105 *9:111 1.4
759 *9:105 *9:110 0.869982
760 *9:104 *9:109 1.4
761 *9:104 *9:108 2.23709
762 *9:103 *9:107 0.497155
763 *9:102 *9:106 0.124283
764 *9:101 *9:105 2.11281
765 *9:100 *9:104 0.124283
766 *9:99 *9:103 1.4
767 *9:98 *9:102 1.4
768 *9:97 *9:101 1.4
769 *9:96 *9:100 1.4
770 *9:94 *9:99 3.3558
771 *9:93 *9:98 0.248578
772 *9:93 *9:97 0.372866
773 *9:92 *9:96 1.11855
774 *9:91 *577:CK 1.4
775 *9:90 *9:94 1.4
776 *9:89 *9:93 1.4
777 *9:88 *9:92 1.4
778 *9:85 *9:91 1.4
779 *9:85 *9:90 0.870021
780 *9:84 *9:89 1.24283
781 *9:83 *9:88 0.124283
782 *9:83 *882:CK 1.4
783 *9:82 *648:CK 1.4
784 *9:81 *9:85 3.23151
785 *9:81 *9:84 1.4
786 *9:80 *9:83 0.869981
787 *9:79 *9:82 1.4
788 *9:78 *9:81 0.124289
789 *9:77 *9:80 1.4
790 *9:76 *9:79 0.124289
791 *9:75 *9:78 1.4
792 *9:73 *9:77 2.85851
793 *9:71 *9:76 1.4
794 *9:71 *9:75 1.11855
795 *9:70 *528:CK 1.4
796 *9:69 *9:73 1.4
797 *9:68 *647:CK 1.4
798 *9:68 *9:71 1.11855
799 *9:66 *9:70 3.47998
800 *9:65 *9:69 0.372849
801 *9:65 *9:68 2.2371
802 *9:64 *659:CK 1.4
803 *9:63 *9:66 1.4
804 *9:62 *9:65 1.4
805 *9:61 *9:64 1.4
806 *9:60 *9:63 3.10709
807 *9:58 *9:62 1.11855
808 *9:58 *9:61 0.124283
809 *9:57 *9:60 1.4
810 *9:57 *682:CK 1.4
811 *9:55 *9:58 1.4
812 *9:54 *9:57 0.869981
813 *9:53 *575:CK 1.4
814 *9:53 *9:55 2.23709
815 *9:51 *9:54 1.4
816 *9:50 *9:53 2.23709
817 *9:49 *529:CK 1.4
818 *9:48 *9:51 1.11855
819 *9:46 *9:50 1.4
820 *9:45 *9:49 1.98862
821 *9:44 *9:48 1.4
822 *9:44 *683:CK 1.4
823 *9:42 *9:46 1.61568
824 *9:41 *9:45 1.4
825 *9:40 *9:44 1.24283
826 *9:39 *903:CK 1.4
827 *9:39 *9:42 1.4
828 *9:38 *9:41 0.497132
829 *9:37 *9:40 1.4
830 *9:36 *9:39 2.23709
831 *9:35 *9:38 1.4
832 *9:33 *9:37 0.497133
833 *9:33 *9:36 1.4
834 *9:32 *9:35 0.248575
835 *9:32 *526:CK 1.4
836 *9:30 *9:33 3.35564
837 *9:29 *9:32 2.11281
838 *9:28 *905:CK 1.4
839 *9:28 *9:30 1.4
840 *9:26 *9:29 1.4
841 *9:25 *9:28 1.24283
842 *9:23 *933:CK 1.4
843 *9:22 *9:26 0.497133
844 *9:22 *9:25 1.4
845 *9:21 *964:CK 1.4
846 *9:20 *9:23 1.4
847 *9:20 *9:22 2.60995
848 *9:19 *9:21 1.4
849 *9:18 *9:20 0.745702
850 *9:17 *9:19 0.248569
851 *9:16 *9:18 1.4
852 *9:14 *9:17 1.4
853 *9:14 *9:16 0.869979
854 *9:13 *601:CK 1.4
855 *9:12 *9:14 0.124283
856 *9:11 *9:13 2.23709
857 *9:10 *9:12 1.4
858 *9:9 *9:11 1.4
859 *9:9 *9:10 0.745733
860 *9:8 *9:9 0.124289
861 *9:6 *9:8 1.4
862 *9:5 *546:CK 1.4
863 *9:5 *9:6 1.11854
864 *9:4 *9:5 2.23709
865 *9:3 *9:4 1.4
866 *9:2 *9:3 2.85864
867 *9:1 *9:2 1.4
868 *579:CK *9:1 1.4
*END

*D_NET *10 0.158726

*CONN
*I *962:RN I *C 32.335 6.235 *L 0.00665 *D SDFFRHQX4
*I *960:RN I *C 31.465 11.455 *L 0.00665 *D SDFFRHQX4
*I *967:RN I *C 26.245 17.545 *L 0.00665 *D SDFFRHQX4
*I *961:RN I *C 32.335 16.675 *L 0.00665 *D SDFFRHQX4
*I *928:RN I *C 25.665 12.325 *L 0.00665 *D SDFFRHQX4
*I *965:RN I *C 15.225 12.325 *L 0.00665 *D SDFFRHQX4
*I *931:RN I *C 14.935 37.555 *L 0.00665 *D SDFFRHQX4
*I *968:RN I *C 15.225 16.675 *L 0.00665 *D SDFFRHQX4
*I *897:RN I *C 14.645 27.985 *L 0.00665 *D SDFFRHQX4
*I *966:RN I *C 9.135 11.455 *L 0.00665 *D SDFFRHQX4
*I *916:RN I *C 14.645 33.205 *L 0.00665 *D SDFFRHQX4
*I *948:RN I *C 14.645 27.115 *L 0.00665 *D SDFFRHQX4
*I *963:RN I *C 15.515 6.235 *L 0.00665 *D SDFFRHQX4
*I *941:RN I *C 9.135 21.895 *L 0.00665 *D SDFFRHQX4
*I *896:RN I *C 14.645 42.775 *L 0.00665 *D SDFFRHQX4
*I *525:RN I *C 12.905 47.125 *L 0.00439 *D SDFFRHQX1
*I *524:RN I *C 8.265 44.515 *L 0.00439 *D SDFFRHQX1
*I *932:RN I *C 8.265 38.425 *L 0.00665 *D SDFFRHQX4
*I *523:RN I *C 17.255 49.735 *L 0.00439 *D SDFFRHQX1
*I *599:RN I *C 22.185 47.125 *L 0.00439 *D SDFFRHQX1
*I *598:RN I *C 23.635 49.735 *L 0.00439 *D SDFFRHQX1
*I *929:RN I *C 25.665 53.215 *L 0.00665 *D SDFFRHQX4
*I *584:RN I *C 31.755 54.955 *L 0.00439 *D SDFFRHQX1
*I *580:RN I *C 42.195 54.955 *L 0.00439 *D SDFFRHQX1
*I *822:RN I *C 31.175 68.005 *L 0.00439 *D SDFFRHQX1
*I *588:RN I *C 29.145 60.175 *L 0.00439 *D SDFFRHQX1
*I *579:RN I *C 45.095 47.125 *L 0.00439 *D SDFFRHQX1
*I *870:RN I *C 24.505 57.565 *L 0.0036 *D SDFFRX1
*I *669:RN I *C 22.765 60.175 *L 0.00439 *D SDFFRHQX1
*I *821:RN I *C 34.655 70.615 *L 0.00439 *D SDFFRHQX1
*I *667:RN I *C 22.765 65.395 *L 0.00439 *D SDFFRHQX1
*I *602:RN I *C 50.315 39.295 *L 0.00439 *D SDFFRHQX1
*I *670:RN I *C 16.675 65.395 *L 0.00439 *D SDFFRHQX1
*I *788:RN I *C 31.175 75.835 *L 0.00438 *D SDFFRHQX2
*I *534:RN I *C 52.055 36.685 *L 0.00439 *D SDFFRHQX1
*I *603:RN I *C 41.035 36.685 *L 0.00439 *D SDFFRHQX1
*I *549:RN I *C 50.025 34.075 *L 0.00439 *D SDFFRHQX1
*I *668:RN I *C 18.995 70.615 *L 0.00439 *D SDFFRHQX1
*I *671:RN I *C 19.865 73.225 *L 0.00439 *D SDFFRHQX1
*I *876:RN I *C 14.065 62.785 *L 0.0036 *D SDFFRX1
*I *877:RN I *C 12.615 57.565 *L 0.0036 *D SDFFRX1
*I *872:RN I *C 15.805 75.545 *L 0.0103 *D SDFFRHQX8
*I *672:RN I *C 12.325 73.225 *L 0.00439 *D SDFFRHQX1
*I *871:RN I *C 16.095 80.765 *L 0.0103 *D SDFFRHQX8
*I *865:RN I *C 9.425 83.955 *L 0.0103 *D SDFFRHQX8
*I *867:RN I *C 9.425 85.985 *L 0.0103 *D SDFFRHQX8
*I *673:RN I *C 7.975 68.005 *L 0.00439 *D SDFFRHQX1
*I *666:RN I *C 7.685 70.615 *L 0.00439 *D SDFFRHQX1
*I *873:RN I *C 9.715 96.425 *L 0.0103 *D SDFFRHQX8
*I *874:RN I *C 15.225 94.395 *L 0.0103 *D SDFFRHQX8
*I *875:RN I *C 16.385 91.205 *L 0.0103 *D SDFFRHQX8
*I *866:RN I *C 16.675 99.615 *L 0.0103 *D SDFFRHQX8
*I *785:RN I *C 25.665 96.715 *L 0.00438 *D SDFFRHQX2
*I *898:RN I *C 32.915 101.645 *L 0.0103 *D SDFFRHQX8
*I *790:RN I *C 26.825 100.195 *L 0.00665 *D SDFFRHQX4
*I *904:RN I *C 25.665 104.835 *L 0.0103 *D SDFFRHQX8
*I *786:RN I *C 28.275 86.275 *L 0.00438 *D SDFFRHQX2
*I *901:RN I *C 36.395 112.085 *L 0.0103 *D SDFFRHQX8
*I *902:RN I *C 38.425 106.865 *L 0.0103 *D SDFFRHQX8
*I *899:RN I *C 45.385 110.055 *L 0.0103 *D SDFFRHQX8
*I *906:RN I *C 54.955 106.865 *L 0.0103 *D SDFFRHQX8
*I *900:RN I *C 48.865 101.645 *L 0.0103 *D SDFFRHQX8
*I *907:RN I *C 49.155 104.835 *L 0.0103 *D SDFFRHQX8
*I *777:RN I *C 52.055 99.325 *L 0.00439 *D SDFFRHQX1
*I *895:RN I *C 59.305 101.935 *L 0.0036 *D SDFFRX1
*I *774:RN I *C 58.725 96.715 *L 0.00438 *D SDFFRHQX2
*I *776:RN I *C 57.855 86.275 *L 0.00438 *D SDFFRHQX2
*I *959:RN I *C 58.435 78.445 *L 0.0036 *D SDFFRX1
*I *882:RN I *C 63.655 73.225 *L 0.0036 *D SDFFRX1
*I *889:RN I *C 68.005 96.425 *L 0.0103 *D SDFFRHQX8
*I *835:RN I *C 71.775 101.935 *L 0.00439 *D SDFFRHQX1
*I *856:RN I *C 67.425 104.835 *L 0.0103 *D SDFFRHQX8
*I *858:RN I *C 67.135 94.395 *L 0.0103 *D SDFFRHQX8
*I *576:RN I *C 70.325 88.885 *L 0.00439 *D SDFFRHQX1
*I *857:RN I *C 72.645 99.615 *L 0.0103 *D SDFFRHQX8
*I *600:RN I *C 53.795 68.005 *L 0.00439 *D SDFFRHQX1
*I *607:RN I *C 52.925 73.225 *L 0.00439 *D SDFFRHQX1
*I *601:RN I *C 48.575 60.175 *L 0.00439 *D SDFFRHQX1
*I *593:RN I *C 45.965 73.225 *L 0.00439 *D SDFFRHQX1
*I *648:RN I *C 70.905 83.665 *L 0.00439 *D SDFFRHQX1
*I *577:RN I *C 74.965 86.275 *L 0.00439 *D SDFFRHQX1
*I *781:RN I *C 42.195 75.835 *L 0.00438 *D SDFFRHQX2
*I *905:RN I *C 57.275 59.885 *L 0.0103 *D SDFFRHQX8
*I *933:RN I *C 55.245 57.565 *L 0.0036 *D SDFFRX1
*I *964:RN I *C 54.085 54.955 *L 0.0036 *D SDFFRX1
*I *647:RN I *C 70.615 81.055 *L 0.00439 *D SDFFRHQX1
*I *649:SN I *C 81.925 83.375 *L 0.00483 *D SDFFSHQX1
*I *546:RN I *C 51.765 52.345 *L 0.00439 *D SDFFRHQX1
*I *659:RN I *C 73.515 75.835 *L 0.00439 *D SDFFRHQX1
*I *529:RN I *C 60.465 47.125 *L 0.00439 *D SDFFRHQX1
*I *651:RN I *C 86.855 81.055 *L 0.00439 *D SDFFRHQX1
*I *658:RN I *C 75.835 78.445 *L 0.00439 *D SDFFRHQX1
*I *526:RN I *C 62.785 52.345 *L 0.00439 *D SDFFRHQX1
*I *650:SN I *C 83.665 72.935 *L 0.00483 *D SDFFSHQX1
*I *575:RN I *C 69.745 70.615 *L 0.00439 *D SDFFRHQX1
*I *886:RN I *C 91.495 94.395 *L 0.0103 *D SDFFRHQX8
*I *869:RN I *C 85.115 89.175 *L 0.0103 *D SDFFRHQX8
*I *903:RN I *C 70.325 65.105 *L 0.0103 *D SDFFRHQX8
*I *868:RN I *C 91.785 85.985 *L 0.0103 *D SDFFRHQX8
*I *683:RN I *C 70.035 57.565 *L 0.00359 *D SDFFRXL
*I *887:RN I *C 84.535 91.205 *L 0.0103 *D SDFFRHQX8
*I *682:RN I *C 70.325 54.955 *L 0.00359 *D SDFFRXL
*I *528:RN I *C 76.995 47.125 *L 0.00439 *D SDFFRHQX1
*I *839:RN I *C 83.375 101.935 *L 0.00439 *D SDFFRHQX1
*I *923:RN I *C 104.255 79.315 *L 0.00665 *D SDFFRHQX4
*I *652:RN I *C 97.005 78.445 *L 0.00439 *D SDFFRHQX1
*I *888:RN I *C 83.085 99.615 *L 0.0103 *D SDFFRHQX8
*I *881:RN I *C 86.855 104.835 *L 0.0103 *D SDFFRHQX8
*I *880:RN I *C 93.815 106.865 *L 0.0103 *D SDFFRHQX8
*I *945:RN I *C 110.635 74.965 *L 0.00665 *D SDFFRHQX4
*I *918:RN I *C 110.635 84.535 *L 0.00665 *D SDFFRHQX4
*I *922:RN I *C 104.545 74.095 *L 0.00665 *D SDFFRHQX4
*I *921:RN I *C 104.545 68.875 *L 0.00665 *D SDFFRHQX4
*I *957:RN I *C 110.635 94.975 *L 0.00665 *D SDFFRHQX4
*I *920:RN I *C 104.545 63.655 *L 0.00665 *D SDFFRHQX4
*I *944:RN I *C 110.635 54.085 *L 0.00665 *D SDFFRHQX4
*I *917:RN I *C 104.545 47.995 *L 0.00665 *D SDFFRHQX4
*I *915:RN I *C 104.545 37.555 *L 0.00665 *D SDFFRHQX4
*I *958:RN I *C 104.545 95.845 *L 0.00665 *D SDFFRHQX4
*I *956:RN I *C 104.545 105.415 *L 0.00665 *D SDFFRHQX4
*I *946:RN I *C 104.545 89.755 *L 0.00665 *D SDFFRHQX4
*I *947:RN I *C 110.635 42.775 *L 0.00665 *D SDFFRHQX4
*I *919:RN I *C 110.635 33.205 *L 0.00665 *D SDFFRHQX4
*I *914:RN I *C 104.545 27.985 *L 0.00665 *D SDFFRHQX4
*I *912:RN I *C 100.775 21.895 *L 0.00665 *D SDFFRHQX4
*I *913:RN I *C 100.485 22.765 *L 0.00665 *D SDFFRHQX4
*I *911:RN I *C 106.865 17.545 *L 0.00665 *D SDFFRHQX4
*I *943:RN I *C 106.285 7.105 *L 0.00665 *D SDFFRHQX4
*I *938:RN I *C 101.065 6.235 *L 0.00665 *D SDFFRHQX4
*I *954:RN I *C 93.815 17.545 *L 0.00665 *D SDFFRHQX4
*I *910:RN I *C 100.485 16.675 *L 0.00665 *D SDFFRHQX4
*P *10 I *C 119.19 4.905 *L 0
*I *934:RN I *C 86.855 21.895 *L 0.00665 *D SDFFRHQX4
*I *935:RN I *C 96.715 12.325 *L 0.00665 *D SDFFRHQX4
*I *955:RN I *C 79.605 22.765 *L 0.00665 *D SDFFRHQX4
*I *538:RN I *C 79.025 26.245 *L 0.00439 *D SDFFRHQX1
*I *532:RN I *C 78.735 34.075 *L 0.00439 *D SDFFRHQX1
*I *925:RN I *C 73.225 21.895 *L 0.00665 *D SDFFRHQX4
*I *937:RN I *C 73.805 16.675 *L 0.00665 *D SDFFRHQX4
*I *927:RN I *C 72.355 12.325 *L 0.00665 *D SDFFRHQX4
*I *908:RN I *C 82.215 11.455 *L 0.00665 *D SDFFRHQX4
*I *940:RN I *C 69.455 11.455 *L 0.00665 *D SDFFRHQX4
*I *953:RN I *C 63.075 7.105 *L 0.00665 *D SDFFRHQX4
*I *926:RN I *C 89.175 7.105 *L 0.00665 *D SDFFRHQX4
*I *909:RN I *C 70.905 6.235 *L 0.00665 *D SDFFRHQX4
*I *924:RN I *C 85.695 6.235 *L 0.00665 *D SDFFRHQX4
*I *952:RN I *C 50.315 11.455 *L 0.00665 *D SDFFRHQX4
*I *930:RN I *C 55.825 6.235 *L 0.00665 *D SDFFRHQX4
*I *951:RN I *C 56.985 12.325 *L 0.00665 *D SDFFRHQX4
*I *942:RN I *C 44.225 11.455 *L 0.00665 *D SDFFRHQX4
*I *950:RN I *C 43.935 7.105 *L 0.00665 *D SDFFRHQX4
*I *843:RN I *C 60.175 21.025 *L 0.00439 *D SDFFRHQX1
*I *841:RN I *C 47.995 21.025 *L 0.00439 *D SDFFRHQX1
*I *547:RN I *C 53.505 23.635 *L 0.00439 *D SDFFRHQX1
*I *537:RN I *C 64.525 28.855 *L 0.00439 *D SDFFRHQX1
*I *949:RN I *C 40.745 17.545 *L 0.00665 *D SDFFRHQX4
*I *939:RN I *C 36.685 27.115 *L 0.00665 *D SDFFRHQX4
*I *936:RN I *C 31.755 27.985 *L 0.00665 *D SDFFRHQX4
*I *615:RN I *C 27.985 36.685 *L 0.00439 *D SDFFRHQX1

*CAP
1 *10:2 3.97588e-05
2 *10:3 3.97588e-05
3 *10:4 0.00035595
4 *10:5 0.0004746
5 *10:6 0.00011865
6 *10:7 1.98794e-05
7 *10:8 0.000437347
8 *10:9 1.98794e-05
9 *10:10 5.96382e-05
10 *10:11 0.000377708
11 *10:13 0.0002373
12 *10:14 0.00035595
13 *10:16 0.0002373
14 *10:17 0.000296625
15 *10:18 5.9325e-05
16 *10:19 1.98794e-05
17 *10:21 3.95476e-05
18 *10:22 1.98794e-05
19 *10:23 0.000750137
20 *10:26 0.000730328
21 *10:30 3.94772e-05
22 *10:32 0.00030658
23 *10:33 1.97386e-05
24 *10:34 0.00111657
25 *10:35 6.1316e-05
26 *10:36 0.00121357
27 *10:37 1.97386e-05
28 *10:38 6.1316e-05
29 *10:39 0.000739895
30 *10:40 1.96445e-05
31 *10:41 1.97386e-05
32 *10:42 0.000434249
33 *10:43 0.000739895
34 *10:44 1.96445e-05
35 *10:45 1.96445e-05
36 *10:47 5.92158e-05
37 *10:48 0.000375033
38 *10:49 0.000403579
39 *10:51 1.96445e-05
40 *10:52 6.72632e-05
41 *10:54 0.000367896
42 *10:55 0.000735792
43 *10:56 1.96445e-05
44 *10:59 6.72632e-05
45 *10:60 0.000367896
46 *10:61 0.000735792
47 *10:63 5.89336e-05
48 *10:69 3.9289e-05
49 *10:71 0.000156947
50 *10:72 0.000156947
51 *10:73 7.85781e-05
52 *10:74 0.00039289
53 *10:75 0.000179368
54 *10:76 0.000314312
55 *10:77 0.000381158
56 *10:78 2.24211e-05
57 *10:79 0.000201789
58 *10:81 0.000493263
59 *10:82 0.000294668
60 *10:84 0.000470842
61 *10:85 0.000628625
62 *10:87 0.000333957
63 *10:89 0.000224211
64 *10:91 2.24211e-05
65 *10:92 0.000201789
66 *10:93 9.82226e-05
67 *10:95 0.000235734
68 *10:96 0.000137512
69 *10:97 2.24211e-05
70 *10:98 0.000247031
71 *10:99 2.24211e-05
72 *10:100 0.000314636
73 *10:102 6.76051e-05
74 *10:104 0.000452691
75 *10:105 0.000452691
76 *10:106 6.3886e-05
77 *10:107 8.51814e-05
78 *10:108 2.12953e-05
79 *10:110 0.000844451
80 *10:111 0.000822798
81 *10:112 6.49577e-05
82 *10:113 4.33052e-05
83 *10:114 2.12953e-05
84 *10:115 0.000383316
85 *10:116 0.00056798
86 *10:117 2.12953e-05
87 *10:118 0.000383316
88 *10:119 0.00056798
89 *10:121 0.000151568
90 *10:122 0.000159788
91 *10:123 2.16526e-05
92 *10:124 0.000468975
93 *10:125 0.000159788
94 *10:126 0.000553679
95 *10:127 2.12953e-05
96 *10:128 0.00033906
97 *10:129 2.08715e-05
98 *10:130 0.000745337
99 *10:131 2.12953e-05
100 *10:132 0.000428166
101 *10:133 0.000563529
102 *10:134 0.000191658
103 *10:137 0.000405631
104 *10:138 0.00022535
105 *10:140 0.000626144
106 *10:141 2.16526e-05
107 *10:142 0.000121863
108 *10:143 0.000121863
109 *10:144 0.000202815
110 *10:145 0.000359523
111 *10:146 8.34858e-05
112 *10:147 0.000259831
113 *10:148 0.000548383
114 *10:149 0.000121863
115 *10:151 0.000359523
116 *10:152 0.000159788
117 *10:153 0.000238178
118 *10:154 0.000383316
119 *10:155 2.2535e-05
120 *10:156 0.000568694
121 *10:158 2.08715e-05
122 *10:159 0.000159788
123 *10:161 0.000383316
124 *10:162 2.2535e-05
125 *10:163 2.2535e-05
126 *10:164 0.000142173
127 *10:166 0.000208715
128 *10:167 0.000125229
129 *10:169 2.16526e-05
130 *10:171 2.2535e-05
131 *10:172 4.50701e-05
132 *10:174 0.000187843
133 *10:175 0.000125229
134 *10:176 2.16526e-05
135 *10:178 0.000383096
136 *10:179 0.000139814
137 *10:180 0.000119841
138 *10:182 0.000338026
139 *10:183 0.000101552
140 *10:184 0.000119841
141 *10:185 1.99735e-05
142 *10:186 0.000119841
143 *10:188 6.09315e-05
144 *10:189 0.000101552
145 *10:191 0.000187843
146 *10:193 0.000304657
147 *10:194 0.00027042
148 *10:196 0.000187843
149 *10:198 0.00018028
150 *10:199 0.000304657
151 *10:200 0.000676051
152 *10:202 0.000383096
153 *10:203 6.09315e-05
154 *10:205 6.09315e-05
155 *10:206 0.000405631
156 *10:207 0.000600675
157 *10:208 0.000223415
158 *10:209 0.000202815
159 *10:211 6.09315e-05
160 *10:212 4.0621e-05
161 *10:213 0.00039786
162 *10:214 2.03105e-05
163 *10:215 0.000223415
164 *10:216 0.000202815
165 *10:218 4.0621e-05
166 *10:219 0.000445888
167 *10:220 2.03105e-05
168 *10:221 0.00018028
169 *10:225 3.87729e-05
170 *10:226 0.000407115
171 *10:228 2.2535e-05
172 *10:229 0.000157745
173 *10:232 0.000237829
174 *10:235 0.000304657
175 *10:237 0.000389174
176 *10:238 0.000304657
177 *10:239 0.000908073
178 *10:241 2.2535e-05
179 *10:242 0.000756728
180 *10:244 0.00022535
181 *10:245 1.93865e-05
182 *10:246 2.03105e-05
183 *10:247 0.000202815
184 *10:248 0.000387729
185 *10:249 2.03105e-05
186 *10:251 0.000387729
187 *10:252 2.16208e-05
188 *10:254 3.87729e-05
189 *10:255 0.000129725
190 *10:256 2.16208e-05
191 *10:258 1.93865e-05
192 *10:259 0.000367553
193 *10:260 0.000129725
194 *10:262 0.00025945
195 *10:263 0.000367553
196 *10:265 0.00025945
197 *10:266 5.81594e-05
198 *10:267 5.81594e-05
199 *10:268 5.81594e-05
200 *10:269 0.000659139
201 *10:271 0.000620366
202 *10:274 1.93865e-05
203 *10:275 0.000216208
204 *10:277 0.000151346
205 *10:278 0.00028107
206 *10:279 0.000151346
207 *10:281 6.48624e-05
208 *10:282 8.67485e-05
209 *10:283 0.000179019
210 *10:284 0.00055178
211 *10:285 1.93865e-05
212 *10:286 0.000179019
213 *10:287 0.000507486
214 *10:288 0.000114908
215 *10:289 0.000230765
216 *10:290 0.000758391
217 *10:291 2.30675e-05
218 *10:293 0.000114908
219 *10:294 0.000230765
220 *10:295 0.000758391
221 *10:296 0.000323576
222 *10:300 2.30675e-05
223 *10:301 0.000323576
224 *10:302 2.30675e-05
225 *10:303 0.000218588
226 *10:305 0.000218588
227 *10:307 5.74098e-05
228 *10:308 0.000401869
229 *10:309 0.000139101
230 *10:310 0.000344459
231 *10:311 0.000139101
232 *10:313 0.000210503
233 *10:314 0.000210503
234 *10:316 0.000476919
235 *10:317 0.000695507
236 *10:318 0.000218588
237 *10:320 0.000210503
238 *10:322 0.000210503
239 *10:323 1.98716e-05
240 *10:324 0.000416968
241 *10:325 0.000397096
242 *10:326 0.000133956
243 *10:328 0.000380986
244 *10:330 1.98716e-05
245 *10:331 0.000430882
246 *10:332 1.98716e-05
247 *10:334 0.000183852
248 *10:336 0.000253743
249 *10:338 0.000675863
250 *10:339 0.000485287
251 *10:341 6.31671e-05
252 *10:342 0.000187677
253 *10:344 0.000187677
254 *10:345 0.000187677
255 *10:346 0.000187677
256 *10:347 2.10557e-05
257 *10:348 4.21114e-05
258 *10:349 6.31671e-05
259 *10:350 4.21114e-05
260 *10:351 0.000652727
261 *10:352 0.000750709
262 *10:354 0.000652727
263 *10:356 0.00131374
264 *10:358 4.21114e-05
265 *10:359 0.000375354
266 *10:361 2.10557e-05
267 *10:362 0.000942208
268 *10:363 2.0853e-05
269 *10:364 0.000375354
270 *10:365 2.10557e-05
271 *10:366 2.10557e-05
272 *10:367 0.000421319
273 *10:368 0.000166824
274 *10:369 2.10557e-05
275 *10:371 2.10557e-05
276 *10:372 0.000382919
277 *10:373 4.21428e-05
278 *10:374 2.10557e-05
279 *10:375 0.000542178
280 *10:376 0.000336891
281 *10:379 0.000382919
282 *10:380 0.000241843
283 *10:381 2.10557e-05
284 *10:382 4.21114e-05
285 *10:383 0.000396207
286 *10:384 0.000315836
287 *10:385 0.000205311
288 *10:388 0.000241843
289 *10:390 4.21114e-05
290 *10:391 0.000189501
291 *10:392 0.000166824
292 *10:393 0.000205311
293 *10:395 0.000400357
294 *10:398 0.000210557
295 *10:400 0.000166824
296 *10:402 6.32142e-05
297 *10:403 0.000906071
298 *10:405 2.10557e-05
299 *10:407 6.31671e-05
300 *10:408 0.000120922
301 *10:409 6.04609e-05
302 *10:410 0.000568928
303 *10:411 0.000166824
304 *10:413 6.31671e-05
305 *10:414 0.000636836
306 *10:415 6.04609e-05
307 *10:416 0.000462117
308 *10:417 0.000166824
309 *10:419 2.10714e-05
310 *10:420 0.000515915
311 *10:422 2.01536e-05
312 *10:423 0.000441963
313 *10:424 2.10557e-05
314 *10:426 2.10714e-05
315 *10:427 0.000191658
316 *10:429 4.21428e-05
317 *10:431 0.000315836
318 *10:433 0.000170363
319 *10:434 2.12953e-05
320 *10:435 0.000189643
321 *10:437 0.000651174
322 *10:438 0.00020853
323 *10:439 0.000281484
324 *10:441 0.000161229
325 *10:442 0.000337143
326 *10:443 0.000356394
327 *10:444 2.0853e-05
328 *10:445 0.000396207
329 *10:446 0.000281484
330 *10:447 0.000161229
331 *10:448 2.01536e-05
332 *10:449 0.000358214
333 *10:450 0.000238871
334 *10:451 2.0853e-05
335 *10:453 0.000396317
336 *10:455 2.10714e-05
337 *10:456 2.01536e-05
338 *10:457 6.04609e-05
339 *10:458 0.000189643
340 *10:459 0.000238871
341 *10:461 2.10557e-05
342 *10:462 0.000208639
343 *10:464 2.10714e-05
344 *10:466 6.04609e-05
345 *10:467 0.000223938
346 *10:468 2.10714e-05
347 *10:469 0.000145413
348 *10:470 2.10557e-05
349 *10:471 0.000181383
350 *10:475 0.000223938
351 *10:476 0.000382919
352 *10:477 0.00049856
353 *10:479 0.000181383
354 *10:481 2.12953e-05
355 *10:482 0.000382919
356 *10:483 0.00037392
357 *10:486 0.000210387
358 *10:487 2.12953e-05
359 *10:488 0.00042731
360 *10:489 2.07733e-05
361 *10:490 0.000173725
362 *10:492 4.18152e-05
363 *10:493 0.000547857
364 *10:495 2.10714e-05
365 *10:496 0.000406238
366 *10:497 0.000217156
367 *10:498 0.0007843
368 *10:499 0.000168446
369 *10:501 0.000379285
370 *10:502 0.000161229
371 *10:504 0.000217156
372 *10:506 0.000610575
373 *10:507 0.000168446
374 *10:508 0.000201536
375 *10:509 0.000161229
376 *10:510 0.000457013
377 *10:511 0.000222723
378 *10:512 2.0853e-05
379 *10:513 0.000261997
380 *10:514 2.10714e-05
381 *10:515 0.0003116
382 *10:516 0.000145413
383 *10:517 0.000222723
384 *10:518 2.0853e-05
385 *10:519 0.000400357
386 *10:520 6.04609e-05
387 *10:521 2.10714e-05
388 *10:522 0.000629751
389 *10:523 0.000217156
390 *10:526 0.000948214
391 *10:529 0.000608036
392 *10:530 2.17156e-05
393 *10:531 0.000369165
394 *10:533 2.01536e-05
395 *10:534 0.0007375
396 *10:537 2.07733e-05
397 *10:538 0.000152009
398 *10:540 2.01536e-05
399 *10:541 4.03072e-05
400 *10:542 0.000273928
401 *10:543 0.000290827
402 *10:544 4.15467e-05
403 *10:546 4.03072e-05
404 *10:547 2.01536e-05
405 *10:548 8.42857e-05
406 *10:549 0.000270053
407 *10:551 0.00012464
408 *10:554 2.01536e-05
409 *10:555 0.00044338
410 *10:556 0.000499458
411 *10:559 8.30933e-05
412 *10:562 0.00044338
413 *10:563 0.000499458
414 *10:565 0.000629751
415 *10:567 0.000511595
416 *10:568 0.000103867
417 *10:569 0.000803476
418 *10:570 0.000511595
419 *10:571 0.0006232
420 *10:572 0.000386612
421 *10:573 2.07733e-05
422 *10:575 0.000519333
423 *10:576 6.51467e-05
424 *10:577 0.000212888
425 *10:579 2.07733e-05
426 *10:580 0.000174342
427 *10:581 6.51467e-05
428 *10:582 0.000228603
429 *10:585 0.000174342
430 *10:587 0.000228603
431 *10:589 3.82666e-05
432 *10:590 0.000132093
433 *10:591 3.82666e-05
434 *10:592 0.000132093
435 *10:594 0.000134904
436 *10:595 0.000457206
437 *10:596 0.00019272
438 *10:597 0.000457206
439 *10:598 0.000375237
440 *10:599 0.000404712
441 *10:601 0.000375237
442 *10:602 1.87619e-05
443 *10:603 0.000693792
444 *10:605 0.000625455
445 *10:606 1.87619e-05
446 *10:607 1.87619e-05
447 *10:608 0.000982872
448 *10:609 0.00124528
449 *10:612 1.87619e-05
450 *10:613 1.87619e-05
451 *10:614 0.000635976
452 *10:615 0.000676175
453 *10:619 1.87619e-05
454 *10:620 0.000393999
455 *10:621 5.63479e-05
456 *10:622 0.000371941
457 *10:625 0.000375237
458 *10:626 1.87619e-05
459 *10:628 0.000390538
460 *10:631 0.000414771
461 *10:632 0.000281739
462 *10:633 1.85971e-05
463 *10:635 0.00113354
464 *10:636 0.000281739
465 *10:637 0.000112696
466 *10:639 0.000878493
467 *10:640 1.85971e-05
468 *10:641 0.00072298
469 *10:643 0.000159726
470 *10:644 1.85971e-05
471 *10:645 0.000610285
472 *10:647 1.89332e-05
473 *10:650 1.89332e-05
474 *10:652 0.000119794
475 *10:653 0.000499143
476 *10:654 0.000378664
477 *10:655 0.000740677
478 *10:656 0.000378664
479 *10:657 1.89332e-05
480 *10:658 0.00037848
481 *10:659 0.000658869
482 *10:660 1.89332e-05
483 *10:661 0.000104798
484 *10:662 1.71519e-05
485 *10:663 0.000638904
486 *10:664 1.99657e-05
487 *10:666 0.000104798
488 *10:667 0.000275962
489 *10:671 0.00027443
490 *10:672 0.000295943
491 *10:673 0.000943354
492 *10:675 5.99431e-05
493 *10:676 1.74664e-05
494 *10:677 0.000686076
495 *10:679 5.98616e-05
496 *10:680 3.99621e-05
497 *10:681 1.74664e-05
498 *10:682 1.74664e-05
499 *10:683 1.71519e-05
500 *10:684 5.98616e-05
501 *10:685 0.000299308
502 *10:687 0.00036078
503 *10:688 0.000751056
504 *10:690 0.000299308
505 *10:692 5.14557e-05
506 *10:693 0.000343313
507 *10:694 0.000751056
508 *10:695 0.000459564
509 *10:696 5.14557e-05
510 *10:698 6.86076e-05
511 *10:699 3.99621e-05
512 *10:700 0.000899146
513 *10:703 6.86076e-05
514 *10:704 5.98616e-05
515 *10:706 0.000479545
516 *10:707 8.73321e-06
517 *10:708 0.000359169
518 *10:710 0.000279354
519 *10:711 1.59607e-05
520 *10:713 0.000299308
521 *10:714 0.000299308
522 *10 7.22748e-06
523 *10:716 0.000259753
524 *10:717 1.99539e-05
525 *10:718 0.000499526
526 *10:719 0.000259753
527 *10:721 0.000539488
528 *10:723 7.98154e-05
529 *10:724 3.99621e-05
530 *10:726 7.98154e-05
531 *10:727 0.000340338
532 *10:729 0.000919751
533 *10:730 1.99539e-05
534 *10:731 0.000599367
535 *10:733 0.000416637
536 *10:734 1.95898e-05
537 *10:735 0.000416637
538 *10:736 1.95898e-05
539 *10:737 0.000359664
540 *10:739 3.99626e-05
541 *10:740 0.000659384
542 *10:743 4.19067e-05
543 *10:744 0.000359664
544 *10:745 4.19067e-05
545 *10:746 6.28601e-05
546 *10:747 1.99813e-05
547 *10:749 0.000272394
548 *10:750 0.000636428
549 *10:752 3.99626e-05
550 *10:753 0.000209534
551 *10:754 0.000896181
552 *10:755 3.99626e-05
553 *10:756 1.99813e-05
554 *10:757 0.000259753
555 *10:760 0.000319701
556 *10:761 0.000299308
557 *10:764 0.00029972
558 *10:765 0.000299308
559 *10:766 0.000565741
560 *10:767 0.000239772
561 *10:768 0.000104767
562 *10:769 0.000921948
563 *10:770 0.000219791
564 *10:771 1.9981e-05
565 *10:772 5.9944e-05
566 *10:774 0.000460974
567 *10:776 5.98616e-05
568 *10:777 5.9944e-05
569 *10:779 1.99813e-05
570 *10:781 5.98616e-05
571 *10:783 0.00029972
572 *10:785 0.000279738
573 *10:786 6.28601e-05
574 *10:787 0.000474947
575 *10:788 6.28601e-05
576 *10:789 2.09534e-05
577 *10:790 0.000871461
578 *10:791 7.99253e-05
579 *10:792 5.9944e-05
580 *10:794 0.000437347
581 *10:795 7.99253e-05
582 *10:796 0.000619421
583 *10:799 1.98794e-05
584 *10:801 0.00059944
585 *10:804 0.000296625
586 *10:805 3.99626e-05
587 *10:806 0.000395429
588 *10:807 0.000296625
589 *10:808 0.000230487
590 *10:809 0.000395429
591 *10:811 0.000230487
592 *10:812 3.955e-05
593 *10:813 0.000587095
594 *10:814 0.000217525
595 *10:815 0.000587095
596 *10:817 0.000177975
597 *10:818 0.000238553
598 *10:819 0.00030795
599 *10:820 0.000143989
600 *10:821 0.000616261
601 *10:822 0.00030795
602 *10:823 0.000143989
603 *10:825 0.000397588
604 *10:826 2.26116e-05
605 *10:829 0.0002373
606 *10:830 1.98794e-05
607 *10:831 2.26116e-05
608 *10:833 0.0002373
609 *10:834 0.000419113
610 *10:836 0.000119276
611 *10:837 0.000419113
612 *10:838 0.000119276
613 *10:839 0.000379496
614 *10:841 0.000379496
615 *10:843 6.26144e-05
616 *10:844 6.26144e-05
617 *10:846 0.000339549
618 *10:847 0.000619178
619 *10:849 0.000279629
620 *10:851 0.000626144
621 *10:852 0.000626144
622 *10:853 1.99735e-05
623 *10:854 1.99735e-05

*RES
1 *10:855 *615:RN 1.4
2 *10:854 *10:855 1.4
3 *10:853 *10:854 0.124289
4 *10:852 *10:853 1.4
5 *10:851 *10:852 3.72848
6 *10:849 *10:851 1.4
7 *10:848 *936:RN 1.4
8 *10:847 *10:849 1.74004
9 *10:847 *10:848 1.4
10 *10:846 *10:847 2.11291
11 *10:844 *10:846 1.4
12 *10:843 *939:RN 1.4
13 *10:843 *10:844 0.372848
14 *10:841 *10:843 1.4
15 *10:840 *949:RN 1.4
16 *10:839 *10:841 2.36149
17 *10:838 *10:840 1.4
18 *10:837 *10:839 1.4
19 *10:836 *10:838 0.745699
20 *10:834 *10:837 2.60994
21 *10:833 *10:836 1.4
22 *10:831 *537:RN 1.4
23 *10:830 *10:834 1.4
24 *10:829 *10:833 1.4914
25 *10:827 *547:RN 1.4
26 *10:826 *10:831 0.124289
27 *10:825 *10:830 0.124283
28 *10:825 *10:829 1.4
29 *10:824 *841:RN 1.4
30 *10:823 *10:827 1.4
31 *10:822 *10:826 1.4
32 *10:821 *10:825 2.36138
33 *10:821 *10:824 1.4
34 *10:820 *10:823 0.870007
35 *10:819 *10:822 1.86425
36 *10:818 *10:821 1.4914
37 *10:817 *10:820 1.4
38 *10:815 *10:819 1.4
39 *10:814 *10:818 1.4
40 *10:814 *10:817 1.11855
41 *10:813 *843:RN 1.4
42 *10:813 *10:815 3.48009
43 *10:812 *10:814 0.248566
44 *10:811 *10:813 1.4
45 *10:809 *10:812 1.4
46 *10:808 *10:811 1.36718
47 *10:807 *950:RN 1.4
48 *10:806 *10:809 2.36147
49 *10:805 *10:808 1.4
50 *10:804 *10:807 1.86425
51 *10:801 *10:806 1.4
52 *10:801 *10:805 0.248578
53 *10:799 *10:804 1.4
54 *10:798 *942:RN 1.4
55 *10:796 *951:RN 1.4
56 *10:796 *10:801 3.48009
57 *10:795 *930:RN 1.4
58 *10:794 *10:799 0.124283
59 *10:794 *10:798 1.4
60 *10:793 *952:RN 1.4
61 *10:792 *10:796 0.372866
62 *10:791 *10:795 0.497155
63 *10:790 *10:794 2.60995
64 *10:790 *10:793 1.4
65 *10:789 *10:792 1.4
66 *10:788 *10:791 1.4
67 *10:787 *10:790 2.73432
68 *10:787 *10:789 0.124289
69 *10:786 *10:788 0.372866
70 *10:785 *10:787 1.4
71 *10:783 *10:786 1.4
72 *10:783 *10:785 1.74004
73 *10:781 *924:RN 1.4
74 *10:779 *10:783 0.124289
75 *10:777 *909:RN 1.4
76 *10:776 *10:781 0.372848
77 *10:775 *926:RN 1.4
78 *10:774 *10:779 1.4
79 *10:773 *953:RN 1.4
80 *10:772 *10:777 0.372866
81 *10:771 *10:776 1.4
82 *10:770 *10:775 1.4
83 *10:769 *10:774 2.73435
84 *10:769 *10:773 1.4
85 *10:768 *10:772 1.4
86 *10:767 *10:771 0.124283
87 *10:767 *10:770 1.36711
88 *10:766 *10:769 2.73435
89 *10:766 *10:768 0.621444
90 *10:765 *10:767 1.4
91 *10:764 *10:766 1.4
92 *10:761 *10:765 1.86424
93 *10:760 *10:764 1.86433
94 *10:760 *940:RN 1.4
95 *10:758 *908:RN 1.4
96 *10:757 *10:761 1.4
97 *10:756 *10:760 0.124289
98 *10:755 *927:RN 1.4
99 *10:754 *10:758 1.4
100 *10:754 *10:757 1.61568
101 *10:753 *10:756 1.4
102 *10:752 *10:755 0.248578
103 *10:750 *10:754 3.85288
104 *10:749 *10:753 1.24289
105 *10:749 *10:752 1.4
106 *10:748 *937:RN 1.4
107 *10:747 *10:750 1.4
108 *10:746 *10:749 0.372866
109 *10:745 *10:748 1.4
110 *10:744 *10:747 0.124289
111 *10:744 *10:746 1.4
112 *10:743 *10:745 0.248578
113 *10:740 *10:744 2.11291
114 *10:740 *10:743 1.4
115 *10:739 *925:RN 1.4
116 *10:738 *532:RN 1.4
117 *10:737 *10:740 1.98862
118 *10:737 *10:739 0.248578
119 *10:736 *10:738 1.4
120 *10:735 *10:737 1.4
121 *10:734 *10:736 0.124289
122 *10:733 *10:735 2.48576
123 *10:731 *10:734 1.4
124 *10:730 *10:733 1.4
125 *10:729 *538:RN 1.4
126 *10:729 *10:731 3.35563
127 *10:727 *10:730 0.124283
128 *10:727 *10:729 1.98852
129 *10:726 *955:RN 1.4
130 *10:724 *10:727 1.4
131 *10:723 *10:726 0.497131
132 *10:722 *935:RN 1.4
133 *10:721 *10:724 0.248566
134 *10:721 *10:723 1.4
135 *10:719 *10:722 1.4
136 *10:718 *10:721 3.10708
137 *10:717 *934:RN 1.4
138 *10:716 *10:719 1.61568
139 *10:714 *10:718 1.4
140 *10:714 *10:717 0.124283
141 *10:713 *10:716 1.4
142 *10:711 *10 0.0514273
143 *10:710 *10:714 1.73996
144 *10:708 *10:713 1.86424
145 *10:708 *910:RN 1.4
146 *10:707 *10:711 0.0621413
147 *10:706 *10:710 1.4
148 *10:705 *954:RN 1.4
149 *10:704 *10:708 0.372848
150 *10:703 *10:707 1.4
151 *10:700 *10:706 2.9828
152 *10:700 *10:705 1.4
153 *10:699 *10:704 1.4
154 *10:698 *10:703 0.497155
155 *10:697 *938:RN 1.4
156 *10:696 *943:RN 1.4
157 *10:695 *10:700 2.60995
158 *10:695 *10:699 0.248566
159 *10:694 *10:698 1.4
160 *10:693 *10:697 1.4
161 *10:692 *10:696 0.372866
162 *10:690 *10:695 1.4
163 *10:688 *10:694 5.34415
164 *10:687 *10:693 2.23709
165 *10:687 *10:692 1.4
166 *10:686 *911:RN 1.4
167 *10:685 *10:690 1.86424
168 *10:684 *913:RN 1.4
169 *10:683 *10:688 1.4
170 *10:682 *10:687 0.124283
171 *10:681 *10:686 1.4
172 *10:680 *10:685 1.4
173 *10:679 *10:684 0.372848
174 *10:677 *10:683 0.124289
175 *10:677 *10:682 1.4
176 *10:676 *10:681 0.124283
177 *10:675 *10:680 0.248566
178 *10:675 *10:679 1.4
179 *10:674 *912:RN 1.4
180 *10:673 *10:677 4.84726
181 *10:673 *10:676 1.4
182 *10:672 *10:675 0.124283
183 *10:672 *10:674 1.4
184 *10:671 *10:673 1.98862
185 *10:667 *10:672 1.73996
186 *10:666 *10:671 1.4
187 *10:665 *914:RN 1.4
188 *10:664 *919:RN 1.4
189 *10:663 *947:RN 1.4
190 *10:662 *10:667 1.4
191 *10:661 *10:666 0.745696
192 *10:660 *10:665 1.4
193 *10:659 *10:664 0.124283
194 *10:659 *10:663 3.97705
195 *10:658 *10:662 0.124289
196 *10:658 *10:661 1.4
197 *10:657 *10:660 0.124283
198 *10:656 *10:659 1.4
199 *10:655 *10:658 2.48574
200 *10:655 *10:657 1.4
201 *10:654 *10:656 2.48567
202 *10:653 *10:655 2.36137
203 *10:653 *10:654 1.4
204 *10:652 *10:653 0.745696
205 *10:650 *10:652 1.4
206 *10:648 *946:RN 1.4
207 *10:647 *10:650 0.124283
208 *10:645 *956:RN 1.4
209 *10:644 *10:648 1.4
210 *10:643 *10:647 1.4
211 *10:641 *958:RN 1.4
212 *10:641 *10:645 4.1015
213 *10:640 *10:644 0.124283
214 *10:639 *10:643 0.994261
215 *10:639 *915:RN 1.4
216 *10:637 *10:641 0.745729
217 *10:636 *10:640 1.4
218 *10:635 *10:639 4.47418
219 *10:635 *917:RN 1.4
220 *10:633 *10:637 1.4
221 *10:632 *10:636 1.86432
222 *10:631 *10:635 2.60994
223 *10:630 *944:RN 1.4
224 *10:628 *10:633 0.124283
225 *10:628 *10:632 1.4
226 *10:626 *10:631 1.4
227 *10:625 *10:630 1.4
228 *10:624 *920:RN 1.4
229 *10:622 *10:628 2.48567
230 *10:621 *957:RN 1.4
231 *10:620 *10:626 0.124283
232 *10:620 *10:625 2.48567
233 *10:619 *10:624 1.4
234 *10:618 *921:RN 1.4
235 *10:615 *10:622 1.4
236 *10:615 *10:621 0.372864
237 *10:614 *10:620 1.4
238 *10:613 *10:619 0.124283
239 *10:612 *10:618 1.4
240 *10:611 *922:RN 1.4
241 *10:609 *918:RN 1.4
242 *10:609 *10:615 4.10151
243 *10:608 *10:614 4.10133
244 *10:608 *10:613 1.4
245 *10:607 *10:612 0.124283
246 *10:606 *10:611 1.4
247 *10:605 *945:RN 1.4
248 *10:605 *10:609 4.10145
249 *10:603 *10:608 2.23709
250 *10:603 *10:607 1.4
251 *10:602 *10:606 0.124283
252 *10:601 *10:605 1.4
253 *10:600 *880:RN 1.4
254 *10:599 *10:603 2.23709
255 *10:599 *10:602 1.4
256 *10:598 *10:601 2.48567
257 *10:597 *10:600 1.4
258 *10:596 *10:599 0.372848
259 *10:596 *10:598 1.4
260 *10:595 *10:597 2.98293
261 *10:594 *10:596 0.869979
262 *10:592 *10:595 1.4
263 *10:591 *10:594 1.4
264 *10:590 *881:RN 1.4
265 *10:590 *10:592 0.870021
266 *10:589 *10:591 0.248569
267 *10:587 *10:590 1.4
268 *10:585 *10:589 1.4
269 *10:583 *888:RN 1.4
270 *10:582 *10:587 1.49146
271 *10:581 *652:RN 1.4
272 *10:580 *10:585 0.99431
273 *10:580 *923:RN 1.4
274 *10:579 *10:583 1.4
275 *10:577 *10:582 1.4
276 *10:576 *10:581 0.372866
277 *10:575 *10:580 1.4
278 *10:573 *10:579 0.124289
279 *10:572 *839:RN 1.4
280 *10:572 *10:577 1.24289
281 *10:571 *10:576 1.4
282 *10:571 *10:575 3.10722
283 *10:570 *528:RN 1.4
284 *10:569 *10:573 1.4
285 *10:569 *10:572 0.99431
286 *10:568 *10:571 0.621444
287 *10:567 *10:570 2.85861
288 *10:565 *10:569 3.60437
289 *10:563 *10:568 1.4
290 *10:562 *10:567 1.4
291 *10:561 *682:RN 1.4
292 *10:559 *10:565 1.4
293 *10:558 *887:RN 1.4
294 *10:556 *10:563 2.85864
295 *10:555 *10:562 2.73423
296 *10:554 *10:561 1.4
297 *10:553 *683:RN 1.4
298 *10:551 *10:559 0.497155
299 *10:551 *10:558 1.4
300 *10:550 *868:RN 1.4
301 *10:549 *10:556 1.4
302 *10:548 *10:555 1.4
303 *10:547 *10:554 0.124283
304 *10:546 *10:553 1.4
305 *10:545 *903:RN 1.4
306 *10:544 *10:551 0.248578
307 *10:543 *10:550 1.4
308 *10:543 *10:549 1.61575
309 *10:542 *10:548 0.497132
310 *10:542 *10:547 1.4
311 *10:541 *10:546 0.248566
312 *10:540 *10:545 1.4
313 *10:538 *10:544 1.4
314 *10:537 *10:543 0.124289
315 *10:534 *10:542 1.11855
316 *10:534 *10:541 1.4
317 *10:533 *10:540 0.124283
318 *10:531 *869:RN 1.4
319 *10:531 *10:538 0.870021
320 *10:530 *10:537 1.4
321 *10:529 *886:RN 1.4
322 *10:527 *575:RN 1.4
323 *10:526 *10:534 3.23136
324 *10:526 *10:533 1.4
325 *10:524 *650:SN 1.4
326 *10:523 *10:531 1.24289
327 *10:522 *10:530 0.124289
328 *10:522 *10:529 3.48009
329 *10:521 *526:RN 1.4
330 *10:520 *10:527 1.4
331 *10:519 *10:526 2.36138
332 *10:518 *658:RN 1.4
333 *10:517 *10:524 1.4
334 *10:516 *10:523 1.4
335 *10:515 *10:522 1.4
336 *10:514 *10:521 0.124283
337 *10:513 *10:520 0.372849
338 *10:513 *10:519 1.4
339 *10:512 *10:518 0.124283
340 *10:511 *10:517 1.36718
341 *10:510 *10:516 0.870021
342 *10:510 *10:515 1.86433
343 *10:509 *10:514 1.4
344 *10:508 *10:513 1.24283
345 *10:507 *10:512 1.4
346 *10:506 *10:511 1.4
347 *10:504 *10:510 1.4
348 *10:502 *10:509 0.994265
349 *10:501 *10:508 1.4
350 *10:499 *10:507 0.99431
351 *10:498 *10:506 3.48009
352 *10:498 *651:RN 1.4
353 *10:497 *10:504 1.24289
354 *10:496 *529:RN 1.4
355 *10:495 *10:502 1.4
356 *10:493 *10:501 2.23709
357 *10:493 *659:RN 1.4
358 *10:492 *10:499 1.4
359 *10:490 *10:498 0.99431
360 *10:489 *10:497 1.4
361 *10:488 *10:496 2.23719
362 *10:488 *10:495 0.124283
363 *10:487 *546:RN 1.4
364 *10:486 *10:493 0.994264
365 *10:486 *10:492 0.248566
366 *10:484 *649:SN 1.4
367 *10:483 *10:490 1.4
368 *10:483 *10:489 0.124289
369 *10:482 *10:488 1.4
370 *10:481 *10:487 0.124283
371 *10:479 *10:486 1.4
372 *10:478 *647:RN 1.4
373 *10:477 *10:484 1.4
374 *10:477 *10:483 2.11291
375 *10:476 *10:482 2.36138
376 *10:475 *10:481 1.4
377 *10:474 *964:RN 1.4
378 *10:471 *10:479 1.11855
379 *10:470 *10:478 1.4
380 *10:469 *10:477 0.870021
381 *10:468 *10:476 1.4
382 *10:467 *10:475 1.36712
383 *10:466 *10:474 1.4
384 *10:465 *933:RN 1.4
385 *10:464 *905:RN 1.4
386 *10:462 *10:471 1.4
387 *10:461 *10:470 0.124289
388 *10:459 *10:469 1.4
389 *10:458 *10:468 0.124283
390 *10:458 *10:467 1.4
391 *10:457 *10:466 0.372849
392 *10:456 *10:465 1.4
393 *10:455 *10:464 0.124283
394 *10:454 *781:RN 1.4
395 *10:453 *10:462 1.24283
396 *10:453 *10:461 1.4
397 *10:451 *577:RN 1.4
398 *10:450 *10:459 1.36718
399 *10:449 *10:458 0.994264
400 *10:449 *10:457 1.4
401 *10:448 *10:456 0.124283
402 *10:447 *10:455 1.4
403 *10:446 *10:454 1.4
404 *10:445 *10:453 1.11855
405 *10:445 *648:RN 1.4
406 *10:444 *10:451 0.124283
407 *10:443 *10:450 1.4
408 *10:442 *10:449 1.11855
409 *10:442 *10:448 1.4
410 *10:441 *10:447 0.994265
411 *10:439 *10:446 1.61575
412 *10:438 *10:445 1.24283
413 *10:437 *10:444 1.4
414 *10:437 *10:443 2.11291
415 *10:435 *10:442 0.869981
416 *10:435 *10:441 1.4
417 *10:434 *593:RN 1.4
418 *10:433 *10:439 1.4
419 *10:431 *10:438 1.4
420 *10:431 *10:437 1.74004
421 *10:430 *601:RN 1.4
422 *10:429 *10:435 0.248566
423 *10:427 *10:434 0.124283
424 *10:427 *10:433 0.994261
425 *10:426 *607:RN 1.4
426 *10:424 *10:431 0.124289
427 *10:423 *10:430 1.4
428 *10:422 *10:429 1.4
429 *10:421 *600:RN 1.4
430 *10:420 *10:427 1.4
431 *10:419 *10:426 0.124283
432 *10:418 *857:RN 1.4
433 *10:417 *10:424 1.4
434 *10:416 *10:423 2.61002
435 *10:416 *10:422 0.124283
436 *10:415 *10:421 1.4
437 *10:414 *10:420 2.98292
438 *10:414 *10:419 1.4
439 *10:413 *10:418 1.4
440 *10:411 *10:417 0.994265
441 *10:410 *10:416 1.4
442 *10:409 *10:415 0.372849
443 *10:408 *10:414 0.745699
444 *10:407 *10:413 0.372866
445 *10:406 *576:RN 1.4
446 *10:405 *10:411 1.4
447 *10:403 *10:410 3.35564
448 *10:403 *10:409 1.4
449 *10:402 *10:408 1.4
450 *10:400 *10:407 1.4
451 *10:398 *10:406 1.4
452 *10:398 *10:405 0.124289
453 *10:397 *858:RN 1.4
454 *10:395 *10:403 1.98853
455 *10:395 *10:402 0.372849
456 *10:393 *856:RN 1.4
457 *10:392 *10:400 0.994265
458 *10:392 *835:RN 1.4
459 *10:391 *10:398 1.1186
460 *10:390 *10:397 1.4
461 *10:389 *889:RN 1.4
462 *10:388 *10:395 1.4
463 *10:387 *882:RN 1.4
464 *10:385 *10:393 1.24284
465 *10:384 *10:392 1.4
466 *10:383 *10:391 1.4
467 *10:382 *10:390 0.248578
468 *10:381 *10:389 1.4
469 *10:380 *10:388 1.4914
470 *10:379 *10:387 1.4
471 *10:378 *959:RN 1.4
472 *10:376 *10:385 1.4
473 *10:376 *10:384 1.86433
474 *10:375 *10:383 2.36138
475 *10:375 *10:382 1.4
476 *10:374 *10:381 0.124289
477 *10:373 *10:380 1.4
478 *10:372 *10:379 2.36138
479 *10:371 *10:378 1.4
480 *10:370 *776:RN 1.4
481 *10:369 *10:376 0.124289
482 *10:368 *10:375 0.869982
483 *10:368 *10:374 1.4
484 *10:367 *10:373 0.248566
485 *10:367 *10:372 1.4
486 *10:366 *10:371 0.124289
487 *10:365 *10:370 1.4
488 *10:364 *10:369 1.4
489 *10:363 *10:368 0.124283
490 *10:362 *10:367 2.23709
491 *10:362 *10:366 1.4
492 *10:361 *10:365 0.124289
493 *10:359 *10:364 2.2371
494 *10:358 *10:363 1.4
495 *10:356 *10:362 3.35564
496 *10:356 *10:361 1.4
497 *10:355 *774:RN 1.4
498 *10:354 *10:359 1.4
499 *10:354 *10:358 0.248578
500 *10:353 *895:RN 1.4
501 *10:352 *10:356 4.47419
502 *10:351 *10:355 1.4
503 *10:351 *10:354 3.60437
504 *10:350 *10:353 1.4
505 *10:349 *10:352 1.4
506 *10:349 *10:351 0.248578
507 *10:348 *10:350 0.248578
508 *10:347 *10:349 0.124289
509 *10:346 *10:348 1.4
510 *10:345 *10:347 1.4
511 *10:344 *10:346 1.11855
512 *10:342 *10:345 1.11855
513 *10:341 *10:344 1.4
514 *10:340 *777:RN 1.4
515 *10:339 *10:342 1.4
516 *10:339 *10:341 0.372866
517 *10:338 *10:340 1.4
518 *10:338 *10:339 2.48577
519 *10:336 *10:338 1.36711
520 *10:335 *907:RN 1.4
521 *10:334 *10:336 1.4
522 *10:332 *10:335 1.4
523 *10:331 *10:334 0.99431
524 *10:331 *900:RN 1.4
525 *10:330 *10:332 0.124283
526 *10:328 *10:331 1.36718
527 *10:328 *10:330 1.4
528 *10:327 *906:RN 1.4
529 *10:326 *10:328 0.870017
530 *10:325 *10:327 1.4
531 *10:324 *10:326 1.4
532 *10:324 *10:325 2.60995
533 *10:323 *10:324 0.124283
534 *10:322 *10:323 1.4
535 *10:320 *10:322 1.36717
536 *10:319 *899:RN 1.4
537 *10:318 *10:320 1.4
538 *10:317 *10:319 1.4
539 *10:317 *10:318 1.36711
540 *10:316 *10:317 2.9828
541 *10:314 *10:316 1.4
542 *10:313 *902:RN 1.4
543 *10:313 *10:314 1.36717
544 *10:311 *10:313 1.4
545 *10:310 *901:RN 1.4
546 *10:309 *10:311 0.869982
547 *10:308 *10:310 2.23719
548 *10:308 *10:309 1.4
549 *10:307 *10:308 0.372865
550 *10:305 *10:307 1.4
551 *10:304 *786:RN 1.4
552 *10:303 *10:305 1.36711
553 *10:302 *10:304 1.4
554 *10:301 *10:303 1.4
555 *10:300 *10:302 0.124283
556 *10:296 *10:301 1.86433
557 *10:295 *10:300 1.4
558 *10:294 *904:RN 1.4
559 *10:293 *790:RN 1.4
560 *10:292 *898:RN 1.4
561 *10:291 *10:296 1.4
562 *10:290 *10:295 4.10153
563 *10:289 *10:294 1.36712
564 *10:288 *10:293 0.621444
565 *10:287 *10:292 1.4
566 *10:287 *10:291 0.124283
567 *10:286 *10:290 1.4
568 *10:285 *10:289 1.4
569 *10:284 *10:288 1.4
570 *10:284 *10:287 2.60994
571 *10:283 *10:286 0.994264
572 *10:282 *10:285 0.124283
573 *10:282 *10:284 0.372849
574 *10:281 *10:283 1.4
575 *10:279 *10:282 1.4
576 *10:278 *10:281 0.37285
577 *10:278 *785:RN 1.4
578 *10:277 *10:279 0.869982
579 *10:275 *10:278 1.24283
580 *10:274 *10:277 1.4
581 *10:272 *866:RN 1.4
582 *10:271 *10:275 1.4
583 *10:271 *10:274 0.124283
584 *10:270 *875:RN 1.4
585 *10:269 *10:272 1.4
586 *10:269 *10:271 3.85278
587 *10:268 *10:270 1.4
588 *10:267 *10:269 0.37285
589 *10:266 *10:268 0.37285
590 *10:265 *10:267 1.4
591 *10:263 *10:266 1.4
592 *10:262 *10:265 1.4914
593 *10:260 *874:RN 1.4
594 *10:259 *10:263 2.11281
595 *10:258 *10:262 1.4
596 *10:256 *873:RN 1.4
597 *10:255 *10:260 0.745699
598 *10:254 *10:259 1.4
599 *10:254 *10:258 0.124283
600 *10:253 *666:RN 1.4
601 *10:252 *10:256 0.124283
602 *10:251 *10:255 1.4
603 *10:251 *10:254 0.124283
604 *10:249 *10:253 1.4
605 *10:248 *10:252 1.4
606 *10:248 *10:251 2.36138
607 *10:247 *673:RN 1.4
608 *10:246 *10:249 0.124289
609 *10:245 *10:248 0.124283
610 *10:244 *10:247 1.1186
611 *10:244 *10:246 1.4
612 *10:242 *10:245 1.4
613 *10:241 *10:244 0.124288
614 *10:239 *867:RN 1.4
615 *10:239 *10:242 4.34991
616 *10:238 *10:241 1.4
617 *10:237 *865:RN 1.4
618 *10:237 *10:239 0.869982
619 *10:235 *10:238 1.86433
620 *10:232 *10:237 1.36712
621 *10:231 *871:RN 1.4
622 *10:229 *10:235 1.4
623 *10:228 *672:RN 1.4
624 *10:227 *872:RN 1.4
625 *10:226 *10:232 1.4
626 *10:225 *10:231 1.4
627 *10:224 *877:RN 1.4
628 *10:221 *10:229 0.870019
629 *10:221 *10:228 0.124288
630 *10:220 *10:227 1.4
631 *10:219 *10:226 2.60995
632 *10:219 *10:225 0.248566
633 *10:218 *10:224 1.4
634 *10:217 *876:RN 1.4
635 *10:216 *671:RN 1.4
636 *10:215 *10:221 1.4
637 *10:214 *10:220 0.124289
638 *10:213 *10:219 1.4
639 *10:212 *10:218 0.248578
640 *10:211 *10:217 1.4
641 *10:209 *10:216 1.1186
642 *10:208 *10:215 1.36718
643 *10:207 *10:214 1.4
644 *10:207 *10:213 2.23715
645 *10:206 *10:212 1.4
646 *10:205 *10:211 0.372866
647 *10:204 *668:RN 1.4
648 *10:203 *10:209 1.4
649 *10:202 *10:208 1.4
650 *10:202 *10:207 1.1186
651 *10:200 *10:206 2.23719
652 *10:200 *10:205 1.4
653 *10:199 *10:204 1.4
654 *10:199 *10:203 0.372866
655 *10:198 *10:202 0.994307
656 *10:196 *549:RN 1.4
657 *10:194 *10:200 1.49146
658 *10:193 *10:199 1.49146
659 *10:193 *10:198 1.4
660 *10:192 *603:RN 1.4
661 *10:191 *10:196 1.11854
662 *10:190 *534:RN 1.4
663 *10:189 *10:194 1.4
664 *10:188 *10:193 0.372866
665 *10:186 *10:192 1.4
666 *10:185 *10:191 1.4
667 *10:184 *10:190 1.4
668 *10:183 *10:189 0.621444
669 *10:182 *10:188 1.4
670 *10:181 *788:RN 1.4
671 *10:180 *10:186 0.745733
672 *10:179 *10:185 0.124289
673 *10:179 *10:184 0.745733
674 *10:178 *10:183 1.4
675 *10:178 *10:182 1.86433
676 *10:176 *10:181 1.4
677 *10:175 *10:180 1.4
678 *10:174 *10:179 1.4
679 *10:172 *10:178 0.248577
680 *10:171 *670:RN 1.4
681 *10:169 *10:176 0.124289
682 *10:167 *10:175 0.745696
683 *10:166 *10:174 1.11854
684 *10:166 *602:RN 1.4
685 *10:164 *10:172 1.4
686 *10:163 *10:171 0.124288
687 *10:162 *667:RN 1.4
688 *10:161 *10:169 1.4
689 *10:160 *821:RN 1.4
690 *10:159 *10:167 1.4
691 *10:158 *10:166 0.124283
692 *10:157 *669:RN 1.4
693 *10:156 *10:164 0.870021
694 *10:156 *10:163 1.4
695 *10:155 *10:162 0.124288
696 *10:154 *10:161 2.23709
697 *10:153 *10:160 1.4
698 *10:152 *10:159 0.99431
699 *10:151 *10:158 1.4
700 *10:149 *10:157 1.4
701 *10:148 *10:156 2.61006
702 *10:148 *10:155 1.4
703 *10:147 *10:154 1.4
704 *10:147 *10:153 1.36718
705 *10:146 *10:152 1.4
706 *10:145 *10:151 2.2372
707 *10:144 *870:RN 1.4
708 *10:143 *10:149 0.745732
709 *10:142 *10:148 0.745732
710 *10:141 *10:147 0.124289
711 *10:140 *10:146 0.497131
712 *10:140 *10:145 1.4
713 *10:138 *10:144 1.1186
714 *10:138 *10:143 1.4
715 *10:137 *10:142 1.4
716 *10:134 *10:141 1.4
717 *10:133 *10:140 3.23135
718 *10:133 *579:RN 1.4
719 *10:132 *10:138 0.124288
720 *10:132 *10:137 2.23719
721 *10:131 *588:RN 1.4
722 *10:130 *822:RN 1.4
723 *10:130 *10:134 1.11854
724 *10:129 *10:133 0.124283
725 *10:128 *10:132 1.4
726 *10:127 *10:131 0.124283
727 *10:126 *10:130 3.23135
728 *10:125 *10:129 1.4
729 *10:124 *10:128 1.98862
730 *10:124 *10:127 1.4
731 *10:123 *10:126 1.4
732 *10:122 *10:125 0.99431
733 *10:121 *10:124 0.745733
734 *10:121 *10:123 0.124289
735 *10:119 *10:122 1.4
736 *10:118 *10:121 1.4
737 *10:117 *580:RN 1.4
738 *10:116 *10:119 3.35563
739 *10:115 *10:118 2.23709
740 *10:114 *10:117 0.124283
741 *10:113 *10:116 1.4
742 *10:112 *10:115 1.4
743 *10:111 *10:114 1.4
744 *10:111 *10:113 0.248578
745 *10:110 *10:112 0.372866
746 *10:110 *10:111 4.4744
747 *10:108 *10:110 1.4
748 *10:107 *584:RN 1.4
749 *10:107 *10:108 0.124283
750 *10:106 *10:107 0.372848
751 *10:105 *10:106 1.4
752 *10:104 *10:105 2.61006
753 *10:102 *10:104 1.4
754 *10:100 *929:RN 1.4
755 *10:100 *10:102 0.372865
756 *10:99 *598:RN 1.4
757 *10:98 *10:100 1.36718
758 *10:97 *10:99 0.124289
759 *10:96 *10:98 1.4
760 *10:95 *10:97 1.4
761 *10:95 *10:96 0.870021
762 *10:93 *10:95 0.621444
763 *10:92 *599:RN 1.4
764 *10:91 *10:93 1.4
765 *10:89 *10:92 1.1186
766 *10:89 *10:91 0.124289
767 *10:88 *523:RN 1.4
768 *10:87 *10:89 1.4
769 *10:85 *10:88 1.4
770 *10:85 *10:87 2.11291
771 *10:84 *932:RN 1.4
772 *10:82 *10:85 1.86433
773 *10:81 *10:84 2.61006
774 *10:81 *524:RN 1.4
775 *10:79 *10:82 1.4
776 *10:78 *10:81 0.124289
777 *10:77 *525:RN 1.4
778 *10:77 *10:79 1.1186
779 *10:76 *10:78 1.4
780 *10:75 *10:77 0.99431
781 *10:74 *10:76 1.98862
782 *10:74 *10:75 1.4
783 *10:73 *10:74 0.497155
784 *10:72 *10:73 1.4
785 *10:71 *10:72 0.870021
786 *10:69 *10:71 1.4
787 *10:68 *896:RN 1.4
788 *10:63 *10:69 0.248578
789 *10:63 *10:68 1.4
790 *10:61 *941:RN 1.4
791 *10:60 *963:RN 1.4
792 *10:59 *948:RN 1.4
793 *10:57 *916:RN 1.4
794 *10:56 *10:63 0.124289
795 *10:55 *966:RN 1.4
796 *10:55 *10:61 4.47418
797 *10:54 *10:60 2.23709
798 *10:52 *10:59 0.372866
799 *10:52 *897:RN 1.4
800 *10:51 *10:57 1.4
801 *10:49 *10:56 1.4
802 *10:48 *10:55 1.4
803 *10:47 *10:54 1.4
804 *10:46 *968:RN 1.4
805 *10:45 *10:52 1.4
806 *10:44 *10:51 0.124289
807 *10:43 *931:RN 1.4
808 *10:43 *10:49 2.2372
809 *10:42 *10:48 2.36149
810 *10:42 *10:47 0.372866
811 *10:41 *10:46 1.4
812 *10:40 *10:45 0.124289
813 *10:39 *10:44 1.4
814 *10:39 *10:43 1.86433
815 *10:38 *10:42 1.4
816 *10:37 *10:41 0.124289
817 *10:36 *10:40 1.4
818 *10:36 *10:39 2.2372
819 *10:35 *10:38 0.372848
820 *10:34 *10:37 1.4
821 *10:34 *10:36 4.84706
822 *10:33 *10:35 1.4
823 *10:32 *10:34 1.86424
824 *10:30 *10:33 0.124289
825 *10:30 *10:32 1.4
826 *10:29 *965:RN 1.4
827 *10:26 *10:30 0.124289
828 *10:26 *10:29 1.4
829 *10:25 *928:RN 1.4
830 *10:24 *961:RN 1.4
831 *10:23 *10:26 4.4744
832 *10:23 *10:25 1.4
833 *10:22 *10:24 1.4
834 *10:21 *10:23 0.248575
835 *10:19 *10:22 0.124283
836 *10:18 *10:21 1.4
837 *10:17 *967:RN 1.4
838 *10:16 *10:19 1.4
839 *10:14 *10:18 0.37285
840 *10:14 *10:17 1.86425
841 *10:13 *10:16 1.4914
842 *10:12 *960:RN 1.4
843 *10:11 *10:14 1.4
844 *10:10 *10:13 1.4
845 *10:9 *10:12 1.4
846 *10:8 *10:11 2.36138
847 *10:8 *10:10 0.372849
848 *10:7 *10:9 0.124283
849 *10:6 *10:8 1.4
850 *10:5 *10:7 1.4
851 *10:5 *10:6 0.745699
852 *10:4 *10:5 2.2371
853 *10:3 *10:4 1.4
854 *10:2 *10:3 0.248566
855 *10:1 *10:2 1.4
856 *962:RN *10:1 1.4
*END

*D_NET *11 0.00133784

*CONN
*I *909:D I *C 64.235 5.655 *L 0.00289 *D SDFFRHQX4
*P *11 I *C 68.105 0 *L 0

*CAP
1 *11:1 0.000259757
2 *11:2 0.000259757
3 *11:3 0.000272394
4 *11:4 0.000272394
5 *11:5 0.000129879
6 *11:6 0.000136769
7 *11 6.89011e-06

*RES
1 *11:6 *11 0.0428582
2 *11:5 *11:6 0.807877
3 *11:4 *11:5 1.4
4 *11:3 *11:4 1.61575
5 *11:2 *11:3 1.4
6 *11:1 *11:2 1.61575
7 *909:D *11:1 1.4
*END

*D_NET *12 0.00273588

*CONN
*I *927:D I *C 79.025 12.905 *L 0.00289 *D SDFFRHQX4
*P *12 I *C 72.36 0 *L 0

*CAP
1 *12:1 0.0007782
2 *12:2 0.0007782
3 *12:3 0.000479497
4 *12:4 0.000479497
5 *12:5 0.000109897
6 *12:6 0.000110242
7 *12 3.44506e-07

*RES
1 *12:6 *12 0.00214291
2 *12:5 *12:6 0.683588
3 *12:4 *12:5 1.4
4 *12:3 *12:4 2.85863
5 *12:2 *12:3 1.4
6 *12:1 *12:2 4.84702
7 *927:D *12:1 1.4
*END

*D_NET *13 0.00120128

*CONN
*I *924:D I *C 79.025 5.655 *L 0.00289 *D SDFFRHQX4
*P *13 I *C 76.615 0 *L 0

*CAP
1 *13:2 1.9981e-05
2 *13:3 1.9981e-05
3 *13:4 0.0002594
4 *13:5 0.0002594
5 *13:6 0.000185177
6 *13:7 0.000185177
7 *13:8 0.000129879
8 *13:9 0.00013608
9 *13 6.2011e-06

*RES
1 *13:9 *13 0.0385724
2 *13:8 *13:9 0.807877
3 *13:7 *13:8 1.4
4 *13:6 *13:7 1.11858
5 *13:5 *13:6 1.4
6 *13:4 *13:5 1.61567
7 *13:3 *13:4 1.4
8 *13:2 *13:3 0.124283
9 *13:1 *13:2 1.4
10 *924:D *13:1 1.4
*END

*D_NET *14 0.00131246

*CONN
*I *926:D I *C 82.505 7.685 *L 0.00289 *D SDFFRHQX4
*P *14 I *C 80.875 0 *L 0

*CAP
1 *14:1 0.000399077
2 *14:2 0.000399077
3 *14:3 0.000119886
4 *14:4 0.000119886
5 *14:5 0.0001297
6 *14:6 0.000137269
7 *14 7.5687e-06

*RES
1 *14:6 *14 0.0471417
2 *14:5 *14:6 0.807837
3 *14:4 *14:5 1.4
4 *14:3 *14:4 0.745699
5 *14:2 *14:3 1.4
6 *14:1 *14:2 2.48565
7 *926:D *14:1 1.4
*END

*D_NET *15 0.00617434

*CONN
*I *928:D I *C 32.335 12.905 *L 0.00289 *D SDFFRHQX4
*P *15 I *C 0 0 *L 0

*CAP
1 *15:1 0.000771225
2 *15:2 0.000771225
3 *15:3 0.00219401
4 *15:4 0.00219401
5 *15:5 0.000102193
6 *15:6 0.000102193
7 *15:7 9.8693e-06
8 *15:8 1.97386e-05
9 *15 9.8693e-06

*RES
1 *15:8 *15 0.0621444
2 *15:7 *15:8 0.0621444
3 *15:6 *15:7 1.4
4 *15:5 *15:6 0.621413
5 *15:4 *15:5 1.4
6 *15:3 *15:4 13.7959
7 *15:2 *15:3 1.4
8 *15:1 *15:2 4.84704
9 *928:D *15:1 1.4
*END

*D_NET *16 0.00983487

*CONN
*I *929:D I *C 18.995 52.635 *L 0.00289 *D SDFFRHQX4
*P *16 I *C 0 4.205 *L 0

*CAP
1 *16:2 0.00105615
2 *16:3 0.00105615
3 *16:4 0.00359482
4 *16:5 0.00359482
5 *16:6 0.000266471
6 *16 0.000266471

*RES
1 *16:6 *16 1.6779
2 *16:5 *16:6 1.4
3 *16:4 *16:5 20.7558
4 *16:3 *16:4 1.4
5 *16:2 *16:3 6.46302
6 *16:1 *16:2 1.4
7 *929:D *16:1 1.4
*END

*D_NET *17 0.0036546

*CONN
*I *925:D I *C 79.895 21.315 *L 0.00289 *D SDFFRHQX4
*P *17 I *C 85.13 0 *L 0

*CAP
1 *17:1 0.00135686
2 *17:2 0.00135686
3 *17:3 0.000359658
4 *17:4 0.000359658
5 *17:5 0.000109746
6 *17:6 0.000110778
7 *17 1.0321e-06

*RES
1 *17:6 *17 0.00642841
2 *17:5 *17:6 0.683555
3 *17:4 *17:5 1.4
4 *17:3 *17:4 2.2371
5 *17:2 *17:3 1.4
6 *17:1 *17:2 8.45122
7 *925:D *17:1 1.4
*END

*D_NET *18 0.00158747

*CONN
*I *908:D I *C 88.885 10.875 *L 0.00289 *D SDFFRHQX4
*P *18 I *C 89.385 0 *L 0

*CAP
1 *18:2 1.9981e-05
2 *18:3 1.9981e-05
3 *18:4 0.000738293
4 *18:5 0.000738293
5 *18:6 1.9981e-05
6 *18:7 1.9981e-05
7 *18:8 9.97693e-06
8 *18:9 1.54814e-05
9 *18 5.50451e-06

*RES
1 *18:9 *18 0.0342849
2 *18:8 *18:9 0.0621413
3 *18:7 *18:8 1.4
4 *18:6 *18:7 0.124283
5 *18:5 *18:6 1.4
6 *18:4 *18:5 4.59846
7 *18:3 *18:4 1.4
8 *18:2 *18:3 0.124283
9 *18:1 *18:2 1.4
10 *908:D *18:1 1.4
*END

*D_NET *19 0.00402968

*CONN
*I *937:D I *C 80.475 16.095 *L 0.00289 *D SDFFRHQX4
*P *19 I *C 93.645 0 *L 0

*CAP
1 *19:2 0.000899146
2 *19:3 0.000899146
3 *19:4 0.00110744
4 *19:5 0.0011157
5 *19 8.25677e-06

*RES
1 *19:5 *19 0.0514273
2 *19:4 *19:5 6.89769
3 *19:3 *19:4 1.4
4 *19:2 *19:3 5.59274
5 *19:1 *19:2 1.4
6 *937:D *19:1 1.4
*END

*D_NET *20 0.00481449

*CONN
*I *955:D I *C 86.275 23.345 *L 0.00289 *D SDFFRHQX4
*P *20 I *C 97.9 0 *L 0

*CAP
1 *20:1 0.00147659
2 *20:2 0.00147659
3 *20:3 0.000799241
4 *20:4 0.000799241
5 *20:5 0.0001297
6 *20:6 0.00013142
7 *20 1.72016e-06

*RES
1 *20:6 *20 0.010714
2 *20:5 *20:6 0.807837
3 *20:4 *20:5 1.4
4 *20:3 *20:4 4.97133
5 *20:2 *20:3 1.4
6 *20:1 *20:2 9.19692
7 *955:D *20:1 1.4
*END

*D_NET *21 0.00458189

*CONN
*I *954:D I *C 87.145 18.125 *L 0.00289 *D SDFFRHQX4
*P *21 I *C 102.155 0 *L 0

*CAP
1 *21:1 0.00109746
2 *21:2 0.00109746
3 *21:3 0.00103901
4 *21:4 0.00103901
5 *21:5 0.000149654
6 *21:6 0.00015447
7 *21 4.81645e-06

*RES
1 *21:6 *21 0.0299993
2 *21:5 *21:6 0.93212
3 *21:4 *21:5 1.4
4 *21:3 *21:4 6.46272
5 *21:2 *21:3 1.4
6 *21:1 *21:2 6.83555
7 *954:D *21:1 1.4
*END

*D_NET *22 0.00399634

*CONN
*I *897:D I *C 7.975 28.565 *L 0.00289 *D SDFFRHQX4
*P *22 I *C 0 8.41 *L 0

*CAP
1 *22:1 2.24211e-05
2 *22:2 2.24211e-05
3 *22:3 0.00043218
4 *22:4 0.00043218
5 *22:5 0.00142514
6 *22:6 0.00142514
7 *22:7 0.000108562
8 *22:8 0.000118432
9 *22 9.8693e-06

*RES
1 *22:8 *22 0.0621444
2 *22:7 *22:8 0.683588
3 *22:6 *22:7 1.4
4 *22:5 *22:6 8.57555
5 *22:4 *22:5 1.4
6 *22:3 *22:4 2.73435
7 *22:2 *22:3 1.4
8 *22:1 *22:2 0.124289
9 *897:D *22:1 1.4
*END

*D_NET *23 0.00304954

*CONN
*I *948:D I *C 7.975 26.535 *L 0.00289 *D SDFFRHQX4
*P *23 I *C 0 12.615 *L 0

*CAP
1 *23:2 0.00043218
2 *23:3 0.00043218
3 *23:4 0.000984029
4 *23:5 0.000984029
5 *23:6 0.000108562
6 *23 0.000108562

*RES
1 *23:6 *23 0.683588
2 *23:5 *23:6 1.4
3 *23:4 *23:5 5.96558
4 *23:3 *23:4 1.4
5 *23:2 *23:3 2.73435
6 *23:1 *23:2 1.4
7 *948:D *23:1 1.4
*END

*D_NET *24 0.00282528

*CONN
*I *941:D I *C 15.805 21.315 *L 0.00289 *D SDFFRHQX4
*P *24 I *C 0 16.82 *L 0

*CAP
1 *24:2 0.000947453
2 *24:3 0.000947453
3 *24:4 0.000327019
4 *24:5 0.000327019
5 *24:6 0.000128301
6 *24:7 0.00013817
7 *24 9.8693e-06

*RES
1 *24:7 *24 0.0621444
2 *24:6 *24:7 0.807877
3 *24:5 *24:6 1.4
4 *24:4 *24:5 1.98852
5 *24:3 *24:4 1.4
6 *24:2 *24:3 5.96586
7 *24:1 *24:2 1.4
8 *941:D *24:1 1.4
*END

*D_NET *25 0.00484443

*CONN
*I *939:D I *C 30.015 26.535 *L 0.00289 *D SDFFRHQX4
*P *25 I *C 0 21.025 *L 0

*CAP
1 *25:1 0.00037737
2 *25:2 0.00037737
3 *25:3 0.00204485
4 *25 0.00204485

*RES
1 *25:3 *25 12.8638
2 *25:2 *25:3 1.4
3 *25:1 *25:2 2.36138
4 *939:D *25:1 1.4
*END

*D_NET *26 0.00395874

*CONN
*I *936:D I *C 25.085 28.565 *L 0.00289 *D SDFFRHQX4
*P *26 I *C 0 25.23 *L 0

*CAP
1 *26:1 0.000221237
2 *26:2 0.000221237
3 *26:3 0.00169752
4 *26:4 0.00169752
5 *26:5 4.08773e-05
6 *26:6 4.08773e-05
7 *26:7 9.8693e-06
8 *26:8 1.97386e-05
9 *26 9.8693e-06

*RES
1 *26:8 *26 0.0621444
2 *26:7 *26:8 0.0621444
3 *26:6 *26:7 1.4
4 *26:5 *26:6 0.248565
5 *26:4 *26:5 1.4
6 *26:3 *26:4 10.6888
7 *26:2 *26:3 1.4
8 *26:1 *26:2 1.24288
9 *936:D *26:1 1.4
*END

*D_NET *27 0.162173

*CONN
*I *944:SE I *C 101.935 54.955 *L 0.00473 *D SDFFRHQX4
*I *947:SE I *C 101.935 41.905 *L 0.00473 *D SDFFRHQX4
*I *915:SE I *C 113.245 36.685 *L 0.00473 *D SDFFRHQX4
*I *917:SE I *C 113.245 47.125 *L 0.00473 *D SDFFRHQX4
*I *919:SE I *C 101.935 34.075 *L 0.00473 *D SDFFRHQX4
*I *914:SE I *C 113.245 28.855 *L 0.00473 *D SDFFRHQX4
*I *912:SE I *C 109.475 21.025 *L 0.00473 *D SDFFRHQX4
*I *913:SE I *C 109.185 23.635 *L 0.00473 *D SDFFRHQX4
*I *910:SE I *C 109.185 15.805 *L 0.00473 *D SDFFRHQX4
*I *935:SE I *C 105.415 13.195 *L 0.00473 *D SDFFRHQX4
*I *911:SE I *C 98.165 18.415 *L 0.00473 *D SDFFRHQX4
*I *908:SE I *C 90.915 10.585 *L 0.00473 *D SDFFRHQX4
*I *934:SE I *C 95.555 21.025 *L 0.00473 *D SDFFRHQX4
*I *943:SE I *C 97.585 7.975 *L 0.00473 *D SDFFRHQX4
*I *938:SE I *C 92.365 5.365 *L 0.00473 *D SDFFRHQX4
*I *955:SE I *C 88.305 23.635 *L 0.00473 *D SDFFRHQX4
*I *954:SE I *C 85.115 18.415 *L 0.00473 *D SDFFRHQX4
*I *937:SE I *C 82.505 15.805 *L 0.00473 *D SDFFRHQX4
*I *925:SE I *C 81.925 21.025 *L 0.00473 *D SDFFRHQX4
*I *927:SE I *C 81.055 13.195 *L 0.00473 *D SDFFRHQX4
*I *926:SE I *C 80.475 7.975 *L 0.00473 *D SDFFRHQX4
*I *924:SE I *C 76.995 5.365 *L 0.00473 *D SDFFRHQX4
*I *953:SE I *C 71.775 7.975 *L 0.00473 *D SDFFRHQX4
*I *909:SE I *C 62.205 5.365 *L 0.00473 *D SDFFRHQX4
*I *940:SE I *C 60.755 10.585 *L 0.00473 *D SDFFRHQX4
*I *952:SE I *C 59.015 10.585 *L 0.00473 *D SDFFRHQX4
*I *547:SE I *C 59.595 23.345 *L 0.00488 *D SDFFRHQX1
*I *549:SE I *C 56.115 33.785 *L 0.00488 *D SDFFRHQX1
*I *534:SE I *C 58.145 36.975 *L 0.00488 *D SDFFRHQX1
*I *841:SE I *C 54.085 21.315 *L 0.00488 *D SDFFRHQX1
*I *949:SE I *C 49.445 18.415 *L 0.00473 *D SDFFRHQX4
*I *843:SE I *C 66.265 21.315 *L 0.00488 *D SDFFRHQX1
*I *537:SE I *C 70.615 28.565 *L 0.00488 *D SDFFRHQX1
*I *603:SE I *C 47.125 36.975 *L 0.00488 *D SDFFRHQX1
*I *546:SE I *C 57.855 52.635 *L 0.00488 *D SDFFRHQX1
*I *529:SE I *C 54.375 47.415 *L 0.00488 *D SDFFRHQX1
*I *951:SE I *C 48.285 13.195 *L 0.00473 *D SDFFRHQX4
*I *602:SE I *C 44.225 39.005 *L 0.00488 *D SDFFRHQX1
*I *930:SE I *C 47.125 5.365 *L 0.00473 *D SDFFRHQX4
*I *532:SE I *C 72.645 33.785 *L 0.00488 *D SDFFRHQX1
*I *579:SE I *C 51.185 47.415 *L 0.00488 *D SDFFRHQX1
*I *538:SE I *C 72.935 26.535 *L 0.00488 *D SDFFRHQX1
*I *964:SE I *C 60.465 54.375 *L 0.00389 *D SDFFRX1
*I *903:SE I *C 61.045 65.105 *L 0.00487 *D SDFFRHQX8
*I *600:SE I *C 59.885 68.295 *L 0.00488 *D SDFFRHQX1
*I *682:SE I *C 63.945 54.375 *L 0.0038 *D SDFFRXL
*I *575:SE I *C 63.655 70.325 *L 0.00488 *D SDFFRHQX1
*I *933:SE I *C 61.625 58.145 *L 0.00389 *D SDFFRX1
*I *607:SE I *C 59.015 73.515 *L 0.00488 *D SDFFRHQX1
*I *526:SE I *C 68.875 52.635 *L 0.00488 *D SDFFRHQX1
*I *905:SE I *C 66.555 59.885 *L 0.00487 *D SDFFRHQX8
*I *658:SE I *C 69.745 78.735 *L 0.00488 *D SDFFRHQX1
*I *882:SE I *C 70.035 73.805 *L 0.00389 *D SDFFRX1
*I *528:SE I *C 70.905 47.415 *L 0.00488 *D SDFFRHQX1
*I *683:SE I *C 76.415 58.145 *L 0.0038 *D SDFFRXL
*I *781:SE I *C 47.705 75.545 *L 0.00483 *D SDFFRHQX2
*I *959:SE I *C 52.055 79.025 *L 0.00389 *D SDFFRX1
*I *647:SE I *C 76.705 80.765 *L 0.00488 *D SDFFRHQX1
*I *593:SE I *C 39.875 73.515 *L 0.00488 *D SDFFRHQX1
*I *776:SE I *C 52.345 85.985 *L 0.00483 *D SDFFRHQX2
*I *648:SE I *C 76.995 83.955 *L 0.00488 *D SDFFRHQX1
*I *774:SE I *C 53.215 96.425 *L 0.00483 *D SDFFRHQX2
*I *659:SE I *C 79.605 75.545 *L 0.00488 *D SDFFRHQX1
*I *788:SE I *C 36.685 75.545 *L 0.00483 *D SDFFRHQX2
*I *651:SE I *C 80.765 80.765 *L 0.00488 *D SDFFRHQX1
*I *576:SE I *C 76.415 89.175 *L 0.00488 *D SDFFRHQX1
*I *577:SE I *C 68.875 85.985 *L 0.00488 *D SDFFRHQX1
*I *858:SE I *C 76.415 94.395 *L 0.00487 *D SDFFRHQX8
*I *872:SE I *C 25.085 75.545 *L 0.00487 *D SDFFRHQX8
*I *649:SE I *C 88.885 83.955 *L 0.00468 *D SDFFSHQX1
*I *857:SE I *C 63.365 99.615 *L 0.00487 *D SDFFRHQX8
*I *856:SE I *C 58.145 104.835 *L 0.00487 *D SDFFRHQX8
*I *777:SE I *C 58.145 99.615 *L 0.00488 *D SDFFRHQX1
*I *671:SE I *C 25.955 73.515 *L 0.00488 *D SDFFRHQX1
*I *652:SE I *C 90.915 78.735 *L 0.00488 *D SDFFRHQX1
*I *889:SE I *C 77.285 96.425 *L 0.00487 *D SDFFRHQX8
*I *868:SE I *C 82.505 85.985 *L 0.00487 *D SDFFRHQX8
*I *899:SE I *C 54.665 110.055 *L 0.00487 *D SDFFRHQX8
*I *895:SE I *C 65.685 101.355 *L 0.00389 *D SDFFRX1
*I *822:SE I *C 25.085 68.295 *L 0.00488 *D SDFFRHQX1
*I *650:SE I *C 90.625 73.515 *L 0.00468 *D SDFFSHQX1
*I *886:SE I *C 82.215 94.395 *L 0.00487 *D SDFFRHQX8
*I *821:SE I *C 28.565 70.325 *L 0.00488 *D SDFFRHQX1
*I *668:SE I *C 25.085 70.325 *L 0.00488 *D SDFFRHQX1
*I *887:SE I *C 93.815 91.205 *L 0.00487 *D SDFFRHQX8
*I *835:SE I *C 77.865 101.645 *L 0.00488 *D SDFFRHQX1
*I *667:SE I *C 28.855 65.105 *L 0.00488 *D SDFFRHQX1
*I *880:SE I *C 84.535 106.865 *L 0.00487 *D SDFFRHQX8
*I *876:SE I *C 20.445 63.365 *L 0.00389 *D SDFFRX1
*I *869:SE I *C 94.395 89.175 *L 0.00487 *D SDFFRHQX8
*I *839:SE I *C 89.465 101.645 *L 0.00488 *D SDFFRHQX1
*I *888:SE I *C 92.365 99.615 *L 0.00487 *D SDFFRHQX8
*I *588:SE I *C 35.235 59.885 *L 0.00488 *D SDFFRHQX1
*I *870:SE I *C 18.125 58.145 *L 0.00389 *D SDFFRX1
*I *957:SE I *C 101.935 94.105 *L 0.00473 *D SDFFRHQX4
*I *918:SE I *C 101.935 83.665 *L 0.00473 *D SDFFRHQX4
*I *669:SE I *C 16.675 59.885 *L 0.00488 *D SDFFRHQX1
*I *945:SE I *C 101.935 75.835 *L 0.00473 *D SDFFRHQX4
*I *881:SE I *C 96.135 104.835 *L 0.00487 *D SDFFRHQX8
*I *584:SE I *C 37.845 54.665 *L 0.00488 *D SDFFRHQX1
*I *929:SE I *C 16.965 52.345 *L 0.00473 *D SDFFRHQX4
*I *946:SE I *C 113.245 88.885 *L 0.00473 *D SDFFRHQX4
*I *601:SE I *C 42.485 59.885 *L 0.00488 *D SDFFRHQX1
*I *580:SE I *C 48.285 54.665 *L 0.00488 *D SDFFRHQX1
*I *958:SE I *C 113.245 96.715 *L 0.00473 *D SDFFRHQX4
*I *922:SE I *C 113.245 73.225 *L 0.00473 *D SDFFRHQX4
*I *523:SE I *C 11.165 49.445 *L 0.00488 *D SDFFRHQX1
*I *877:SE I *C 6.235 58.145 *L 0.00389 *D SDFFRX1
*I *956:SE I *C 113.245 104.545 *L 0.00473 *D SDFFRHQX4
*I *923:SE I *C 112.955 78.445 *L 0.00473 *D SDFFRHQX4
*I *921:SE I *C 113.245 68.005 *L 0.00473 *D SDFFRHQX4
*I *598:SE I *C 29.725 49.445 *L 0.00488 *D SDFFRHQX1
*I *920:SE I *C 113.245 62.785 *L 0.00473 *D SDFFRHQX4
*I *666:SE I *C 13.775 70.325 *L 0.00488 *D SDFFRHQX1
*P *27 I *C 119.19 107.92 *L 0
*I *673:SE I *C 14.065 68.295 *L 0.00488 *D SDFFRHQX1
*I *670:SE I *C 10.585 65.105 *L 0.00488 *D SDFFRHQX1
*I *525:SE I *C 6.815 47.415 *L 0.00488 *D SDFFRHQX1
*I *599:SE I *C 28.275 47.415 *L 0.00488 *D SDFFRHQX1
*I *896:SE I *C 5.945 41.905 *L 0.00473 *D SDFFRHQX4
*I *916:SE I *C 5.945 34.075 *L 0.00473 *D SDFFRHQX4
*I *524:SE I *C 14.355 44.225 *L 0.00488 *D SDFFRHQX1
*I *897:SE I *C 5.945 28.855 *L 0.00473 *D SDFFRHQX4
*I *875:SE I *C 7.105 91.205 *L 0.00487 *D SDFFRHQX8
*I *931:SE I *C 6.235 36.685 *L 0.00473 *D SDFFRHQX4
*I *948:SE I *C 5.945 26.245 *L 0.00473 *D SDFFRHQX4
*I *871:SE I *C 6.815 80.765 *L 0.00487 *D SDFFRHQX8
*I *672:SE I *C 6.235 73.515 *L 0.00488 *D SDFFRHQX1
*I *932:SE I *C 16.965 39.295 *L 0.00473 *D SDFFRHQX4
*I *615:SE I *C 21.895 36.975 *L 0.00488 *D SDFFRHQX1
*I *965:SE I *C 6.525 13.195 *L 0.00473 *D SDFFRHQX4
*I *873:SE I *C 18.995 96.425 *L 0.00487 *D SDFFRHQX8
*I *866:SE I *C 7.395 99.615 *L 0.00487 *D SDFFRHQX8
*I *968:SE I *C 6.525 15.805 *L 0.00473 *D SDFFRHQX4
*I *963:SE I *C 6.815 5.365 *L 0.00473 *D SDFFRHQX4
*I *936:SE I *C 23.055 28.855 *L 0.00473 *D SDFFRHQX4
*I *898:SE I *C 23.635 101.645 *L 0.00487 *D SDFFRHQX8
*I *867:SE I *C 18.705 85.985 *L 0.00487 *D SDFFRHQX8
*I *874:SE I *C 24.505 94.395 *L 0.00487 *D SDFFRHQX8
*I *865:SE I *C 18.705 83.955 *L 0.00487 *D SDFFRHQX8
*I *939:SE I *C 27.985 26.245 *L 0.00473 *D SDFFRHQX4
*I *901:SE I *C 27.115 112.085 *L 0.00487 *D SDFFRHQX8
*I *902:SE I *C 29.145 106.865 *L 0.00487 *D SDFFRHQX8
*I *941:SE I *C 17.835 21.025 *L 0.00473 *D SDFFRHQX4
*I *904:SE I *C 34.945 104.835 *L 0.00487 *D SDFFRHQX8
*I *960:SE I *C 22.765 10.585 *L 0.00473 *D SDFFRHQX4
*I *966:SE I *C 17.835 10.585 *L 0.00473 *D SDFFRHQX4
*I *961:SE I *C 23.635 15.805 *L 0.00473 *D SDFFRHQX4
*I *907:SE I *C 39.875 104.835 *L 0.00487 *D SDFFRHQX8
*I *900:SE I *C 39.585 101.645 *L 0.00487 *D SDFFRHQX8
*I *790:SE I *C 35.525 99.325 *L 0.00473 *D SDFFRHQX4
*I *950:SE I *C 35.235 7.975 *L 0.00473 *D SDFFRHQX4
*I *962:SE I *C 23.635 5.365 *L 0.00473 *D SDFFRHQX4
*I *906:SE I *C 45.675 106.865 *L 0.00487 *D SDFFRHQX8
*I *928:SE I *C 34.365 13.195 *L 0.00473 *D SDFFRHQX4
*I *967:SE I *C 34.945 18.415 *L 0.00473 *D SDFFRHQX4
*I *942:SE I *C 35.525 10.585 *L 0.00473 *D SDFFRHQX4
*I *786:SE I *C 33.785 85.985 *L 0.00483 *D SDFFRHQX2
*I *785:SE I *C 31.175 96.425 *L 0.00483 *D SDFFRHQX2

*CAP
1 *27:2 4.04951e-05
2 *27:3 4.04951e-05
3 *27:4 0.000995659
4 *27:5 0.000995659
5 *27:6 3.91796e-05
6 *27:7 3.91796e-05
7 *27:8 0.000399578
8 *27:10 0.000399578
9 *27:12 0.000803402
10 *27:13 0.000783155
11 *27:14 3.91796e-05
12 *27:15 3.78664e-05
13 *27:16 0.000718767
14 *27:17 0.000199789
15 *27:18 1.89332e-05
16 *27:20 0.000718767
17 *27:21 0.000199789
18 *27:22 0.000539075
19 *27:24 1.89332e-05
20 *27:25 7.83592e-05
21 *27:26 0.000823085
22 *27:27 1.89332e-05
23 *27:28 7.83592e-05
24 *27:29 1.89332e-05
25 *27:30 0.00028401
26 *27:33 1.89332e-05
27 *27:34 0.00024453
28 *27:38 0.00024453
29 *27:40 5.14557e-05
30 *27:41 0.000205823
31 *27:42 1.74664e-05
32 *27:43 0.000463101
33 *27:44 1.74664e-05
34 *27:46 0.000308734
35 *27:48 1.74664e-05
36 *27:50 0.000227063
37 *27:52 0.000227063
38 *27:54 0.000154367
39 *27:55 1.74664e-05
40 *27:56 0.000154367
41 *27:57 0.000154367
42 *27:58 0.000508191
43 *27:59 0.000154367
44 *27:60 0.000548153
45 *27:63 5.99431e-05
46 *27:65 0.000538754
47 *27:66 1.9981e-05
48 *27:67 0.000538754
49 *27:68 0.000179585
50 *27:69 0.000439583
51 *27:70 0.000179585
52 *27:71 1.9981e-05
53 *27:72 0.000459564
54 *27:73 0.000119886
55 *27:74 0.000179585
56 *27:75 0.000359169
57 *27:76 3.99621e-05
58 *27:77 0.000599431
59 *27:78 0.000179585
60 *27:79 0.000359169
61 *27:82 0.000499526
62 *27:83 1.9981e-05
63 *27:84 5.99431e-05
64 *27:87 0.000119723
65 *27:88 1.9981e-05
66 *27:89 1.9981e-05
67 *27:90 5.99431e-05
68 *27:91 0.000119723
69 *27:92 0.000179585
70 *27:95 0.000239772
71 *27:96 0.000179585
72 *27:99 0.000239772
73 *27:101 5.98616e-05
74 *27:102 0.000239446
75 *27:104 0.000179585
76 *27:105 0.000179829
77 *27:106 0.00019981
78 *27:108 3.99621e-05
79 *27:110 0.000359169
80 *27:111 1.9981e-05
81 *27:112 0.000359169
82 *27:113 0.000179585
83 *27:114 1.9981e-05
84 *27:115 0.0005188
85 *27:116 1.9981e-05
86 *27:117 5.99431e-05
87 *27:118 0.000339215
88 *27:120 5.99431e-05
89 *27:121 9.99051e-05
90 *27:124 0.000344053
91 *27:126 1.99539e-05
92 *27:127 0.000244148
93 *27:128 1.99539e-05
94 *27:129 1.99813e-05
95 *27:131 0.000199813
96 *27:132 0.000377161
97 *27:133 0.000179832
98 *27:134 0.00104767
99 *27:137 0.000691461
100 *27:139 0.000179832
101 *27:140 2.09534e-05
102 *27:141 0.000179832
103 *27:142 0.000179832
104 *27:143 0.00012572
105 *27:144 0.000179832
106 *27:145 0.00025144
107 *27:148 0.00012572
108 *27:150 0.000879178
109 *27:151 0.000879178
110 *27:153 0.00025144
111 *27:154 4.19067e-05
112 *27:155 0.000335254
113 *27:156 3.99626e-05
114 *27:157 0.000789029
115 *27:158 0.00012572
116 *27:159 3.99626e-05
117 *27:161 0.00103776
118 *27:162 0.000139869
119 *27:163 0.000377161
120 *27:164 0.000248727
121 *27:166 0.000319701
122 *27:167 0.000502881
123 *27:168 0.00016424
124 *27:169 2.09534e-05
125 *27:170 0.000179832
126 *27:171 0.00012572
127 *27:172 0.000179832
128 *27:173 0.00014371
129 *27:174 2.053e-05
130 *27:175 2.09534e-05
131 *27:176 0.000346004
132 *27:177 0.000342058
133 *27:178 0.000179832
134 *27:180 2.26116e-05
135 *27:182 0.000346004
136 *27:183 0.000342058
137 *27:184 0.000104767
138 *27:186 0.000836628
139 *27:188 1.9775e-05
140 *27:189 0.00028742
141 *27:190 0.000104767
142 *27:191 0.000814017
143 *27:192 0.00060616
144 *27:193 0.00035595
145 *27:194 0.000451659
146 *27:196 0.00024636
147 *27:197 0.00060616
148 *27:199 0.000336175
149 *27:200 0.00018477
150 *27:203 0.00014371
151 *27:204 0.00010265
152 *27:205 0.0001461
153 *27:206 7.95176e-05
154 *27:207 2.053e-05
155 *27:208 0.000407008
156 *27:210 0.000382087
157 *27:211 2.26116e-05
158 *27:212 0.000125229
159 *27:213 2.08715e-05
160 *27:214 0.000159035
161 *27:215 0.000158281
162 *27:216 0.000407008
163 *27:217 0.000466372
164 *27:218 2.26116e-05
165 *27:219 0.000199735
166 *27:221 1.9775e-05
167 *27:222 7.95176e-05
168 *27:223 0.000158281
169 *27:224 2.053e-05
170 *27:225 8.42857e-05
171 *27:228 0.000223882
172 *27:229 0.000199735
173 *27:230 1.9775e-05
174 *27:231 0.0005537
175 *27:232 2.053e-05
176 *27:233 2.053e-05
177 *27:234 0.000161229
178 *27:235 0.000223882
179 *27:238 0.0005537
180 *27:239 2.053e-05
181 *27:241 0.000161229
182 *27:247 4.21428e-05
183 *27:250 0.000821785
184 *27:251 0.00101143
185 *27:252 2.01536e-05
186 *27:253 0.000379285
187 *27:254 6.04609e-05
188 *27:255 0.000120922
189 *27:256 0.0001475
190 *27:257 2.01536e-05
191 *27:258 6.04609e-05
192 *27:259 0.000241843
193 *27:261 6.04609e-05
194 *27:262 2.01536e-05
195 *27:264 0.000141075
196 *27:265 0.000273928
197 *27:267 0.000241843
198 *27:270 0.000105357
199 *27:271 0.000379285
200 *27:272 0.000231786
201 *27:273 0.000181383
202 *27:276 0.000105357
203 *27:277 0.000105357
204 *27:278 2.01536e-05
205 *27:279 0.000231786
206 *27:281 0.000342612
207 *27:282 0.000322458
208 *27:283 2.01536e-05
209 *27:284 0.000745684
210 *27:286 0.000503841
211 *27:287 0.000322458
212 *27:289 0.000604609
213 *27:290 0.000141075
214 *27:291 0.000161229
215 *27:292 2.10714e-05
216 *27:293 2.10714e-05
217 *27:295 2.10714e-05
218 *27:296 2.10714e-05
219 *27:297 0.000467912
220 *27:298 2.10714e-05
221 *27:299 2.10714e-05
222 *27:300 0.000378958
223 *27:301 2.10714e-05
224 *27:303 4.21428e-05
225 *27:304 0.00042577
226 *27:307 0.000441299
227 *27:308 2.01536e-05
228 *27:309 0.000549394
229 *27:310 0.000362765
230 *27:311 2.053e-05
231 *27:312 8.34121e-05
232 *27:314 2.01536e-05
233 *27:315 0.000549394
234 *27:316 0.000362765
235 *27:317 2.053e-05
236 *27:318 0.000336891
237 *27:320 0.000127772
238 *27:321 0.000337143
239 *27:323 0.000336891
240 *27:325 0.000127772
241 *27:326 0.000337143
242 *27:328 6.25591e-05
243 *27:329 0.000324789
244 *27:331 6.25591e-05
245 *27:332 6.49577e-05
246 *27:333 0.000844451
247 *27:334 0.000168446
248 *27:335 0.00025976
249 *27:337 0.000736188
250 *27:338 0.000356959
251 *27:339 0.000811317
252 *27:341 0.000149067
253 *27:342 0.000151568
254 *27:343 0.000188513
255 *27:344 0.000229383
256 *27:345 0.00137889
257 *27:347 0.000149067
258 *27:348 2.12953e-05
259 *27:349 0.0004139
260 *27:350 0.000375354
261 *27:352 0.000827335
262 *27:353 2.20616e-05
263 *27:355 2.12953e-05
264 *27:356 2.17156e-05
265 *27:357 0.000392184
266 *27:358 0.000145971
267 *27:359 2.10557e-05
268 *27:360 8.52288e-05
269 *27:361 2.20616e-05
270 *27:362 8.66103e-05
271 *27:363 0.000103867
272 *27:364 2.02476e-05
273 *27:365 2.10557e-05
274 *27:366 2.10557e-05
275 *27:367 0.000464232
276 *27:369 0.000927706
277 *27:370 0.000290827
278 *27:371 2.02476e-05
279 *27:372 0.000568504
280 *27:374 0.000379003
281 *27:377 2.12953e-05
282 *27:378 0.000841095
283 *27:379 0.00018696
284 *27:380 2.17156e-05
285 *27:382 0.000229383
286 *27:383 0.000547449
287 *27:385 0.000250236
288 *27:387 2.12953e-05
289 *27:388 2.2535e-05
290 *27:389 0.000217156
291 *27:390 2.17156e-05
292 *27:392 0.000604737
293 *27:394 0.000250236
294 *27:396 0.00018028
295 *27:397 0.000217156
296 *27:399 0.000396207
297 *27:402 0.000379003
298 *27:403 2.03105e-05
299 *27:404 0.000383096
300 *27:405 0.00043624
301 *27:406 2.0853e-05
302 *27:408 0.000379003
303 *27:409 2.10557e-05
304 *27:410 2.03105e-05
305 *27:411 4.0621e-05
306 *27:412 0.00022535
307 *27:413 0.000540107
308 *27:414 4.15467e-05
309 *27:415 6.31671e-05
310 *27:416 2.10557e-05
311 *27:417 2.0853e-05
312 *27:418 0.000372135
313 *27:420 4.0621e-05
314 *27:421 4.0621e-05
315 *27:422 0.000145413
316 *27:424 0.000152009
317 *27:425 0.000188795
318 *27:426 8.34121e-05
319 *27:427 2.0853e-05
320 *27:428 0.000688009
321 *27:429 2.0853e-05
322 *27:432 0.000169865
323 *27:433 0.000412596
324 *27:435 0.000152009
325 *27:436 0.000125628
326 *27:437 0.000125118
327 *27:438 8.34121e-05
328 *27:440 0.000336726
329 *27:444 0.000129244
330 *27:445 0.00018028
331 *27:446 2.17156e-05
332 *27:447 0.000784025
333 *27:448 2.07733e-05
334 *27:449 0.000499458
335 *27:450 0.000125118
336 *27:451 0.00014739
337 *27:452 0.000212933
338 *27:453 2.12953e-05
339 *27:454 0.00018028
340 *27:455 0.000207733
341 *27:457 0.000393145
342 *27:458 2.07733e-05
343 *27:459 0.000521173
344 *27:460 2.17156e-05
345 *27:462 0.00014739
346 *27:463 0.000212933
347 *27:464 0.000404611
348 *27:465 6.09315e-05
349 *27:466 0.000207733
350 *27:467 2.02476e-05
351 *27:469 4.34311e-05
352 *27:470 0.000394693
353 *27:471 0.000228507
354 *27:472 2.0853e-05
355 *27:474 6.49577e-05
356 *27:475 0.000511088
357 *27:476 6.09315e-05
358 *27:477 0.000369165
359 *27:478 2.02476e-05
360 *27:480 8.35169e-05
361 *27:481 0.000394693
362 *27:482 0.000228507
363 *27:483 2.0853e-05
364 *27:485 6.49577e-05
365 *27:486 8.66103e-05
366 *27:487 0.000127772
367 *27:488 0.000157745
368 *27:489 0.000521174
369 *27:491 8.35169e-05
370 *27:492 2.17156e-05
371 *27:496 8.66103e-05
372 *27:497 0.000688364
373 *27:498 0.000157745
374 *27:500 0.000152009
375 *27:501 4.15467e-05
376 *27:504 0.000410128
377 *27:508 0.000173221
378 *27:509 0.000515144
379 *27:511 0.000540107
380 *27:513 4.15467e-05
381 *27:515 0.000388412
382 *27:516 0.000353147
383 *27:518 0.000255544
384 *27:519 0.000428166
385 *27:520 0.000540107
386 *27:523 0.00056088
387 *27:524 0.000255544
388 *27:526 0.000428166
389 *27:527 0.00078176
390 *27:529 0.000228507
391 *27:530 2.17156e-05
392 *27:531 0.000389746
393 *27:532 0.000162484
394 *27:533 0.000217156
395 *27:534 0.00115209
396 *27:535 2.07733e-05
397 *27:536 0.000130293
398 *27:537 2.17156e-05
399 *27:538 0.000411399
400 *27:539 0.000264036
401 *27:540 4.15467e-05
402 *27:541 4.15467e-05
403 *27:542 0.000587487
404 *27:543 0.000275189
405 *27:544 0.000130293
406 *27:546 0.000194873
407 *27:548 2.2535e-05
408 *27:549 0.000162484
409 *27:550 4.15467e-05
410 *27:551 4.15467e-05
411 *27:552 4.04951e-05
412 *27:553 0.000275189
413 *27:555 0.000173221
414 *27:556 0.000383316
415 *27:558 2.2535e-05
416 *27:559 0.000157745
417 *27:560 8.12419e-05
418 *27:563 0.000766074
419 *27:564 0.000228603
420 *27:565 2.12953e-05
421 *27:566 0.000383316
422 *27:568 0.000157745
423 *27:569 0.000428166
424 *27:570 2.03105e-05
425 *27:573 0.000744341
426 *27:575 0.000228603
427 *27:576 2.12953e-05
428 *27:577 2.16526e-05
429 *27:579 0.000495486
430 *27:580 4.50701e-05
431 *27:581 1.87619e-05
432 *27:582 0.000173448
433 *27:584 1.88704e-05
434 *27:585 0.000346441
435 *27:586 0.000173221
436 *27:587 8.12419e-05
437 *27:588 6.73201e-05
438 *27:589 0.000630981
439 *27:590 0.000173203
440 *27:591 0.000520344
441 *27:592 1.88704e-05
442 *27:593 0.000346441
443 *27:594 0.000931061
444 *27:595 0.000379289
445 *27:596 8.12419e-05
446 *27:597 0.000314312
447 *27:598 0.000585911
448 *27:599 0.000649936
449 *27:600 0.000849378
450 *27:601 1.87619e-05
451 *27:602 0.000693792
452 *27:604 2.12953e-05
453 *27:605 0.000779493
454 *27:607 0.000379289
455 *27:609 0.000314312
456 *27:610 0.000121863
457 *27:611 0.000649936
458 *27:612 0.00118331
459 *27:613 1.85971e-05
460 *27:614 1.87619e-05
461 *27:615 1.87619e-05
462 *27:616 0.000346896
463 *27:617 2.12953e-05
464 *27:620 0.000419443
465 *27:622 0.000156947
466 *27:623 0.000121863
467 *27:624 2.2535e-05
468 *27:625 0.0010129
469 *27:627 1.85971e-05
470 *27:629 1.87619e-05
471 *27:630 1.87619e-05
472 *27:633 0.000539284
473 *27:634 0.000291474
474 *27:635 0.000247885
475 *27:636 2.2535e-05
476 *27:637 0.000698444
477 *27:642 1.87619e-05
478 *27:644 0.000119841
479 *27:646 0.000134526
480 *27:647 0.000338026
481 *27:648 6.76051e-05
482 *27:650 0.000192676
483 *27:656 0.0001461
484 *27:657 0.000333957
485 *27:658 0.000405631
486 *27:659 2.03105e-05
487 *27:660 0.000223415
488 *27:661 0.000328979
489 *27:663 0.0001461
490 *27:664 3.9289e-05
491 *27:665 0.000353601
492 *27:666 0.000247885
493 *27:668 2.03105e-05
494 *27:669 0.000223415
495 *27:670 0.000334789
496 *27:671 1.99735e-05
497 *27:672 0.000291474
498 *27:673 2.24211e-05
499 *27:674 5.89336e-05
500 *27:675 0.000467141
501 *27 5.81039e-06
502 *27:679 1.99735e-05
503 *27:680 0.000291474
504 *27:681 2.24211e-05
505 *27:682 0.000448421
506 *27:683 0.000467141
507 *27:687 0.000176801
508 *27:689 0.000852
509 *27:690 2.2535e-05
510 *27:692 0.000176801
511 *27:694 0.000605368
512 *27:695 0.000555605
513 *27:696 0.000358737
514 *27:697 1.96445e-05
515 *27:698 0.000605368
516 *27:699 0.00131142
517 *27:700 6.09315e-05
518 *27:701 2.24211e-05
519 *27:702 0.000336316
520 *27:703 1.96445e-05
521 *27:705 0.000605368
522 *27:706 0.00116752
523 *27:707 1.93865e-05
524 *27:708 6.09315e-05
525 *27:710 0.000176801
526 *27:713 0.00112252
527 *27:714 0.000389174
528 *27:716 1.93865e-05
529 *27:717 2.2535e-05
530 *27:718 0.000510758
531 *27:721 0.00147258
532 *27:722 1.93865e-05
533 *27:724 2.2535e-05
534 *27:725 0.000333957
535 *27:726 2.24211e-05
536 *27:727 3.94772e-05
537 *27:728 0.000551844
538 *27:729 0.000794844
539 *27:732 0.000201789
540 *27:733 2.24211e-05
541 *27:734 3.94772e-05
542 *27:735 5.92158e-05
543 *27:736 0.000775458
544 *27:737 0.000237829
545 *27:738 0.000829579
546 *27:740 0.000183948
547 *27:741 5.92158e-05
548 *27:742 2.16208e-05
549 *27:743 0.000237829
550 *27:745 0.000627789
551 *27:746 0.000183948
552 *27:750 2.16208e-05
553 *27:752 7.85781e-05
554 *27:755 0.00032957
555 *27:756 7.85781e-05
556 *27:757 0.000368343
557 *27:758 1.93865e-05
558 *27:759 0.000201789
559 *27:760 5.81594e-05
560 *27:761 0.000410795
561 *27:762 0.000756728
562 *27:764 0.000201789
563 *27:765 0.000129725
564 *27:766 0.000776851
565 *27:767 0.000908073
566 *27:768 0.00035574
567 *27:769 0.000129725
568 *27:770 0.000366056
569 *27:773 0.000151346
570 *27:774 0.000336095
571 *27:775 1.96445e-05
572 *27:777 0.00020987
573 *27:780 0.000389326
574 *27:781 0.00020987
575 *27:783 0.000389326
576 *27:784 0.000344459
577 *27:785 0.00027634
578 *27:786 0.000325322
579 *27:787 1.91366e-05
580 *27:788 0.00027634
581 *27:790 0.000139101
582 *27:791 0.000715353
583 *27:792 0.000536534
584 *27:793 2.04387e-05
585 *27:794 0.000715353
586 *27:795 0.000397433
587 *27:797 5.92158e-05
588 *27:798 0.00027634
589 *27:799 2.04387e-05
590 *27:800 0.00011482
591 *27:802 5.92158e-05
592 *27:803 0.000335556
593 *27:804 5.92158e-05
594 *27:805 0.000133956
595 *27:807 5.92158e-05
596 *27:808 2.04387e-05
597 *27:809 5.92158e-05
598 *27:810 0.000298075
599 *27:811 1.91366e-05
600 *27:813 0.000347457
601 *27:814 2.04387e-05
602 *27:816 0.000337818
603 *27:818 0.000347457
604 *27:820 7.89544e-05
605 *27:822 3.97433e-05
606 *27:823 0.000266166
607 *27:825 0.000813436
608 *27:826 1.91366e-05
609 *27:827 0.000450018
610 *27:828 0.00077424
611 *27:829 0.000367896
612 *27:830 1.91366e-05
613 *27:831 2.30675e-05
614 *27:832 0.000183852
615 *27:833 3.97588e-05
616 *27:834 0.000177975
617 *27:835 0.000367896
618 *27:836 0.000397433
619 *27:837 2.30675e-05
620 *27:838 0.000299878
621 *27:839 1.9775e-05
622 *27:840 0.000533925
623 *27:841 1.97386e-05
624 *27:842 0.000397433
625 *27:845 0.000299878
626 *27:846 0.000177975
627 *27:847 0.00035595
628 *27:848 1.98794e-05
629 *27:849 1.97386e-05
630 *27:850 0.000133956
631 *27:853 0.000275778
632 *27:854 1.98794e-05
633 *27:855 0.0001582
634 *27:856 1.98794e-05
635 *27:857 1.98794e-05
636 *27:859 0.000133956
637 *27:861 0.000275778
638 *27:862 1.98794e-05
639 *27:864 1.98794e-05
640 *27:868 0.000138405
641 *27:869 1.9775e-05
642 *27:872 0.000138405
643 *27:873 1.9775e-05
644 *27:875 0.000827335
645 *27:877 4.59631e-05
646 *27:878 0.000781372
647 *27:879 0.000207608
648 *27:881 0.000207608

*RES
1 *27:883 *785:SE 1.4
2 *27:882 *786:SE 1.4
3 *27:881 *27:883 1.4
4 *27:880 *27:882 1.4
5 *27:879 *27:881 1.11855
6 *27:878 *27:880 1.4
7 *27:877 *27:879 1.4
8 *27:875 *27:878 4.22582
9 *27:875 *27:877 0.248578
10 *27:873 *942:SE 1.4
11 *27:872 *27:875 1.4
12 *27:870 *967:SE 1.4
13 *27:869 *27:873 0.124283
14 *27:868 *27:872 0.745698
15 *27:865 *928:SE 1.4
16 *27:864 *27:870 1.4
17 *27:862 *27:869 1.4
18 *27:861 *27:868 1.4
19 *27:859 *906:SE 1.4
20 *27:858 *962:SE 1.4
21 *27:857 *27:865 1.4
22 *27:856 *27:864 0.124283
23 *27:855 *950:SE 1.4
24 *27:854 *27:862 0.124283
25 *27:853 *27:861 1.49146
26 *27:853 *790:SE 1.4
27 *27:850 *27:859 0.870017
28 *27:849 *27:858 1.4
29 *27:848 *27:857 0.124283
30 *27:847 *27:856 1.4
31 *27:846 *27:855 0.994265
32 *27:846 *27:854 1.4
33 *27:845 *27:853 1.4
34 *27:844 *900:SE 1.4
35 *27:843 *907:SE 1.4
36 *27:842 *27:850 1.4
37 *27:841 *27:849 0.124289
38 *27:840 *27:848 1.4
39 *27:840 *27:847 2.2371
40 *27:839 *27:846 0.124283
41 *27:838 *27:845 1.61568
42 *27:837 *27:844 1.4
43 *27:836 *27:843 1.4
44 *27:836 *27:842 2.48566
45 *27:835 *27:841 1.4
46 *27:834 *27:840 1.11855
47 *27:833 *27:839 1.4
48 *27:832 *27:838 1.4
49 *27:831 *27:837 0.124283
50 *27:830 *27:836 1.4
51 *27:829 *27:835 2.23709
52 *27:828 *27:834 1.4
53 *27:828 *27:833 0.248566
54 *27:827 *27:832 0.99431
55 *27:827 *27:831 1.4
56 *27:826 *27:830 0.124288
57 *27:825 *27:829 1.4
58 *27:825 *27:828 4.59852
59 *27:823 *27:827 1.49146
60 *27:822 *27:826 1.4
61 *27:820 *27:825 0.497155
62 *27:818 *961:SE 1.4
63 *27:816 *27:823 1.4
64 *27:816 *27:822 0.248566
65 *27:815 *966:SE 1.4
66 *27:814 *27:820 1.4
67 *27:814 *960:SE 1.4
68 *27:813 *27:818 2.11281
69 *27:811 *904:SE 1.4
70 *27:810 *27:816 1.86425
71 *27:809 *27:815 1.4
72 *27:808 *27:814 0.124283
73 *27:807 *27:813 1.4
74 *27:806 *941:SE 1.4
75 *27:805 *27:811 0.124288
76 *27:805 *27:810 1.4
77 *27:804 *27:809 0.372866
78 *27:803 *27:808 1.4
79 *27:803 *27:807 0.372866
80 *27:802 *27:806 1.4
81 *27:800 *27:805 0.745729
82 *27:799 *27:804 1.4
83 *27:798 *27:803 1.74004
84 *27:797 *27:802 0.372866
85 *27:796 *902:SE 1.4
86 *27:795 *27:800 1.4
87 *27:794 *27:799 0.124283
88 *27:794 *27:798 1.4
89 *27:793 *27:797 1.4
90 *27:792 *27:796 1.4
91 *27:792 *27:795 2.48566
92 *27:791 *27:794 4.22561
93 *27:791 *27:793 0.124283
94 *27:790 *27:792 0.869982
95 *27:788 *27:791 1.4
96 *27:787 *27:790 1.4
97 *27:786 *901:SE 1.4
98 *27:785 *27:788 1.74004
99 *27:784 *27:787 0.124288
100 *27:784 *27:786 2.1129
101 *27:783 *27:785 1.4
102 *27:781 *27:784 1.4
103 *27:780 *27:783 2.36137
104 *27:779 *939:SE 1.4
105 *27:777 *27:781 1.49145
106 *27:775 *27:780 1.4
107 *27:774 *27:779 1.4
108 *27:773 *865:SE 1.4
109 *27:770 *27:777 1.4
110 *27:769 *874:SE 1.4
111 *27:768 *27:775 0.124289
112 *27:768 *27:774 2.11291
113 *27:767 *27:773 0.869982
114 *27:767 *867:SE 1.4
115 *27:766 *898:SE 1.4
116 *27:766 *27:770 2.36143
117 *27:765 *27:769 0.745699
118 *27:764 *27:768 1.4
119 *27:762 *27:767 4.34991
120 *27:761 *27:766 2.36138
121 *27:760 *27:765 1.4
122 *27:759 *27:764 1.1186
123 *27:759 *936:SE 1.4
124 *27:758 *27:762 1.4
125 *27:757 *27:761 1.4
126 *27:757 *27:760 0.37285
127 *27:756 *27:759 1.4
128 *27:755 *27:758 0.124283
129 *27:755 *27:757 1.98853
130 *27:752 *27:756 0.497155
131 *27:750 *27:755 1.4
132 *27:748 *963:SE 1.4
133 *27:746 *968:SE 1.4
134 *27:745 *27:752 1.4
135 *27:743 *866:SE 1.4
136 *27:742 *27:750 0.124283
137 *27:742 *873:SE 1.4
138 *27:741 *27:748 1.4
139 *27:740 *965:SE 1.4
140 *27:740 *27:746 1.11854
141 *27:738 *27:745 3.48009
142 *27:738 *615:SE 1.4
143 *27:737 *27:743 1.36712
144 *27:736 *27:742 1.4
145 *27:735 *27:741 0.372866
146 *27:734 *27:740 1.4
147 *27:733 *932:SE 1.4
148 *27:732 *27:738 1.1186
149 *27:729 *27:737 1.4
150 *27:729 *27:736 4.97133
151 *27:728 *27:735 1.4
152 *27:727 *27:734 0.248578
153 *27:726 *27:733 0.124289
154 *27:725 *27:732 1.4
155 *27:724 *672:SE 1.4
156 *27:723 *871:SE 1.4
157 *27:722 *27:729 0.124283
158 *27:721 *27:728 3.35563
159 *27:721 *27:727 1.4
160 *27:718 *27:726 1.4
161 *27:718 *27:725 2.11291
162 *27:717 *27:724 0.124288
163 *27:716 *27:723 1.4
164 *27:714 *27:722 1.4
165 *27:713 *27:721 5.59272
166 *27:713 *948:SE 1.4
167 *27:711 *931:SE 1.4
168 *27:710 *27:718 1.1186
169 *27:708 *27:717 1.4
170 *27:707 *27:716 0.124283
171 *27:706 *875:SE 1.4
172 *27:706 *27:714 2.2371
173 *27:705 *27:713 1.1186
174 *27:705 *897:SE 1.4
175 *27:703 *27:711 1.4
176 *27:702 *27:710 1.4
177 *27:701 *524:SE 1.4
178 *27:700 *27:708 0.372866
179 *27:699 *27:707 1.4
180 *27:699 *27:706 4.4742
181 *27:698 *27:705 2.2372
182 *27:698 *916:SE 1.4
183 *27:697 *27:703 0.124289
184 *27:696 *27:702 1.86433
185 *27:696 *27:701 0.124289
186 *27:695 *27:700 1.4
187 *27:695 *27:699 2.98288
188 *27:694 *27:698 1.1186
189 *27:694 *27:697 1.4
190 *27:692 *27:696 1.4
191 *27:690 *27:695 0.124288
192 *27:689 *27:694 2.2372
193 *27:689 *896:SE 1.4
194 *27:687 *27:692 1.1186
195 *27:686 *599:SE 1.4
196 *27:683 *27:690 1.4
197 *27:682 *27:689 2.48578
198 *27:681 *525:SE 1.4
199 *27:680 *27:687 1.4
200 *27:679 *27:686 1.4
201 *27:677 *670:SE 1.4
202 *27:676 *673:SE 1.4
203 *27:675 *27:683 2.85864
204 *27:674 *27:682 1.4
205 *27:673 *27:681 0.124289
206 *27:672 *27:680 1.61575
207 *27:671 *27:679 0.124289
208 *27:670 *27 0.0450011
209 *27:669 *27:677 1.4
210 *27:668 *27:676 1.4
211 *27:666 *27:675 1.4
212 *27:665 *27:674 0.372866
213 *27:665 *27:673 1.4
214 *27:664 *27:672 1.4
215 *27:663 *27:671 1.4
216 *27:661 *27:670 2.54792
217 *27:660 *27:669 1.36718
218 *27:659 *27:668 0.124289
219 *27:658 *666:SE 1.4
220 *27:658 *27:666 1.36717
221 *27:657 *27:665 1.86433
222 *27:657 *27:664 0.248578
223 *27:656 *27:663 0.869979
224 *27:654 *920:SE 1.4
225 *27:650 *27:661 1.4
226 *27:648 *27:660 1.4
227 *27:647 *27:659 1.4
228 *27:647 *27:658 0.870019
229 *27:646 *27:657 1.4
230 *27:644 *27:656 1.4
231 *27:643 *598:SE 1.4
232 *27:642 *27:654 1.4
233 *27:641 *921:SE 1.4
234 *27:639 *923:SE 1.4
235 *27:637 *956:SE 1.4
236 *27:637 *27:650 1.49144
237 *27:636 *877:SE 1.4
238 *27:635 *27:648 0.372865
239 *27:635 *27:647 0.994307
240 *27:634 *27:646 0.745733
241 *27:634 *523:SE 1.4
242 *27:633 *27:644 0.745733
243 *27:633 *27:643 1.4
244 *27:630 *27:642 0.124283
245 *27:629 *27:641 1.4
246 *27:628 *922:SE 1.4
247 *27:627 *27:639 1.4
248 *27:625 *958:SE 1.4
249 *27:625 *27:637 3.35578
250 *27:624 *27:636 0.124288
251 *27:623 *27:635 1.4
252 *27:622 *27:634 0.870021
253 *27:620 *27:633 2.61006
254 *27:618 *580:SE 1.4
255 *27:617 *601:SE 1.4
256 *27:616 *27:630 1.4
257 *27:615 *27:629 0.124283
258 *27:614 *27:628 1.4
259 *27:613 *27:627 0.124283
260 *27:612 *946:SE 1.4
261 *27:612 *27:625 3.35578
262 *27:611 *27:624 1.4
263 *27:610 *27:623 0.745732
264 *27:609 *27:622 1.4
265 *27:608 *929:SE 1.4
266 *27:607 *27:620 1.4
267 *27:606 *584:SE 1.4
268 *27:605 *27:618 1.4
269 *27:604 *27:617 0.124283
270 *27:602 *27:616 2.23709
271 *27:602 *27:615 1.4
272 *27:601 *27:614 0.124283
273 *27:600 *27:613 1.4
274 *27:600 *27:612 4.47437
275 *27:599 *27:611 3.97724
276 *27:598 *27:610 1.4
277 *27:597 *27:609 1.98862
278 *27:596 *27:608 1.4
279 *27:595 *27:607 2.23709
280 *27:594 *27:606 1.4
281 *27:594 *27:605 4.4744
282 *27:593 *27:604 1.4
283 *27:592 *881:SE 1.4
284 *27:591 *27:602 2.23709
285 *27:591 *27:601 1.4
286 *27:590 *27:600 1.11855
287 *27:589 *27:599 1.4
288 *27:589 *27:598 3.2315
289 *27:588 *27:597 1.4
290 *27:587 *27:596 0.497155
291 *27:586 *27:595 1.4
292 *27:586 *27:594 0.870021
293 *27:585 *27:593 1.98862
294 *27:584 *27:592 0.124289
295 *27:582 *27:591 1.11854
296 *27:581 *27:590 1.4
297 *27:580 *27:589 0.248577
298 *27:579 *27:588 0.372866
299 *27:579 *27:587 1.4
300 *27:577 *27:586 0.124289
301 *27:576 *27:585 1.4
302 *27:575 *27:584 1.4
303 *27:574 *945:SE 1.4
304 *27:573 *27:582 1.4
305 *27:573 *27:581 0.124283
306 *27:570 *27:580 1.4
307 *27:569 *27:579 2.36148
308 *27:568 *669:SE 1.4
309 *27:566 *27:577 1.4
310 *27:565 *27:576 0.124283
311 *27:564 *27:575 1.49146
312 *27:563 *27:574 1.4
313 *27:563 *27:573 4.72281
314 *27:562 *918:SE 1.4
315 *27:561 *957:SE 1.4
316 *27:560 *27:570 0.124289
317 *27:560 *27:569 1.4
318 *27:559 *27:568 0.870019
319 *27:558 *870:SE 1.4
320 *27:556 *27:566 2.23709
321 *27:555 *27:565 1.4
322 *27:553 *27:564 1.4
323 *27:552 *27:563 0.248578
324 *27:551 *27:562 1.4
325 *27:550 *27:561 1.4
326 *27:549 *27:560 0.372866
327 *27:549 *27:559 1.4
328 *27:548 *27:558 0.124288
329 *27:547 *588:SE 1.4
330 *27:546 *27:556 1.4
331 *27:546 *27:555 0.99431
332 *27:544 *888:SE 1.4
333 *27:543 *27:553 1.61575
334 *27:542 *27:552 1.4
335 *27:541 *27:551 0.248578
336 *27:540 *27:550 0.248578
337 *27:539 *27:549 0.621444
338 *27:539 *27:548 1.4
339 *27:538 *27:547 1.4
340 *27:538 *27:546 0.124289
341 *27:537 *839:SE 1.4
342 *27:536 *27:544 0.745732
343 *27:535 *27:543 1.4
344 *27:534 *27:542 3.3558
345 *27:534 *27:541 1.4
346 *27:533 *27:540 1.4
347 *27:532 *27:539 0.99431
348 *27:531 *27:538 2.2372
349 *27:530 *27:537 0.124289
350 *27:529 *27:536 1.4
351 *27:529 *27:535 0.124289
352 *27:527 *27:534 3.23151
353 *27:527 *27:533 1.24289
354 *27:526 *27:532 1.4
355 *27:524 *27:531 1.4
356 *27:523 *27:530 1.4
357 *27:523 *27:529 1.24289
358 *27:521 *869:SE 1.4
359 *27:520 *27:527 1.4
360 *27:519 *27:526 2.36148
361 *27:519 *876:SE 1.4
362 *27:518 *27:524 1.49139
363 *27:516 *27:523 2.11291
364 *27:515 *880:SE 1.4
365 *27:513 *27:521 1.4
366 *27:511 *27:520 3.23151
367 *27:509 *27:519 1.4
368 *27:508 *27:518 1.4
369 *27:507 *667:SE 1.4
370 *27:504 *27:516 1.4
371 *27:504 *27:515 2.36149
372 *27:503 *835:SE 1.4
373 *27:501 *27:513 0.248578
374 *27:500 *887:SE 1.4
375 *27:500 *27:511 1.4
376 *27:498 *668:SE 1.4
377 *27:497 *27:509 3.10722
378 *27:497 *27:508 0.99431
379 *27:496 *27:507 1.4
380 *27:495 *821:SE 1.4
381 *27:493 *886:SE 1.4
382 *27:492 *27:504 0.124289
383 *27:491 *27:503 1.4
384 *27:490 *650:SE 1.4
385 *27:489 *27:501 1.4
386 *27:489 *27:500 0.870021
387 *27:488 *822:SE 1.4
388 *27:488 *27:498 0.870019
389 *27:487 *27:497 1.4
390 *27:486 *27:496 0.497155
391 *27:485 *27:495 1.4
392 *27:483 *895:SE 1.4
393 *27:482 *27:493 1.4
394 *27:481 *27:492 1.4
395 *27:480 *27:491 0.497155
396 *27:478 *27:490 1.4
397 *27:477 *27:489 2.11291
398 *27:476 *27:488 1.4
399 *27:475 *27:487 0.745696
400 *27:475 *27:486 1.4
401 *27:474 *27:485 0.372866
402 *27:473 *899:SE 1.4
403 *27:472 *27:483 0.124283
404 *27:471 *27:482 1.36718
405 *27:470 *27:481 2.36149
406 *27:469 *27:480 1.4
407 *27:468 *868:SE 1.4
408 *27:467 *27:478 0.124289
409 *27:466 *27:477 1.4
410 *27:465 *27:476 0.372866
411 *27:464 *27:475 2.23709
412 *27:464 *27:474 1.4
413 *27:463 *27:473 1.4
414 *27:462 *27:472 1.4
415 *27:460 *27:471 1.4
416 *27:459 *27:470 1.4
417 *27:459 *27:469 0.248578
418 *27:458 *27:468 1.4
419 *27:457 *27:467 1.4
420 *27:455 *27:466 1.24289
421 *27:454 *27:465 1.4
422 *27:453 *27:464 0.124283
423 *27:452 *27:463 1.4914
424 *27:451 *27:462 0.870021
425 *27:450 *889:SE 1.4
426 *27:449 *27:460 0.124289
427 *27:449 *27:459 2.73435
428 *27:448 *27:458 0.124289
429 *27:447 *27:457 2.2372
430 *27:447 *652:SE 1.4
431 *27:446 *27:455 1.4
432 *27:445 *27:454 0.994307
433 *27:444 *27:453 1.4
434 *27:440 *27:452 1.4
435 *27:438 *27:451 1.4
436 *27:437 *27:450 0.745698
437 *27:436 *27:449 1.4
438 *27:435 *27:448 1.4
439 *27:433 *27:447 2.2372
440 *27:433 *27:446 0.124289
441 *27:432 *27:445 1.4
442 *27:432 *27:444 0.745733
443 *27:431 *671:SE 1.4
444 *27:429 *777:SE 1.4
445 *27:428 *856:SE 1.4
446 *27:428 *27:440 2.2372
447 *27:427 *857:SE 1.4
448 *27:426 *27:438 0.497132
449 *27:425 *27:437 1.4
450 *27:425 *27:436 0.745733
451 *27:424 *27:435 0.870021
452 *27:423 *649:SE 1.4
453 *27:422 *27:433 1.4
454 *27:421 *27:432 0.248578
455 *27:420 *27:431 1.4
456 *27:419 *872:SE 1.4
457 *27:418 *27:429 0.124283
458 *27:418 *27:428 2.11282
459 *27:417 *27:427 0.124283
460 *27:416 *27:426 1.4
461 *27:415 *27:425 0.372866
462 *27:414 *27:424 1.4
463 *27:413 *27:423 1.4
464 *27:413 *27:422 0.870021
465 *27:412 *27:421 1.4
466 *27:411 *27:420 0.248578
467 *27:410 *27:419 1.4
468 *27:409 *27:418 1.4
469 *27:408 *27:417 1.4
470 *27:408 *27:416 0.124289
471 *27:406 *27:415 1.4
472 *27:405 *27:414 0.248578
473 *27:405 *27:413 2.36149
474 *27:404 *27:412 1.24288
475 *27:404 *27:411 1.4
476 *27:403 *27:410 0.124289
477 *27:402 *27:409 0.124289
478 *27:402 *27:408 2.11291
479 *27:399 *858:SE 1.4
480 *27:399 *27:406 0.124283
481 *27:397 *27:405 1.4
482 *27:396 *27:404 0.870019
483 *27:396 *27:403 1.4
484 *27:394 *27:402 1.4
485 *27:393 *577:SE 1.4
486 *27:392 *576:SE 1.4
487 *27:392 *27:399 2.2371
488 *27:390 *651:SE 1.4
489 *27:389 *27:397 1.24289
490 *27:388 *27:396 0.124288
491 *27:387 *788:SE 1.4
492 *27:385 *27:394 1.4914
493 *27:383 *27:393 1.4
494 *27:382 *27:392 1.36711
495 *27:381 *659:SE 1.4
496 *27:380 *27:390 0.124289
497 *27:379 *27:389 1.4
498 *27:378 *27:388 1.4
499 *27:377 *27:387 0.124283
500 *27:375 *774:SE 1.4
501 *27:374 *27:385 1.4
502 *27:373 *648:SE 1.4
503 *27:372 *27:383 3.23151
504 *27:372 *27:382 1.4
505 *27:371 *27:381 1.4
506 *27:370 *27:380 1.4
507 *27:370 *27:379 1.1186
508 *27:369 *27:378 4.84726
509 *27:369 *27:377 1.4
510 *27:368 *776:SE 1.4
511 *27:367 *27:375 1.4
512 *27:367 *27:374 2.2372
513 *27:366 *27:373 1.4
514 *27:365 *27:372 0.124289
515 *27:364 *27:371 0.124289
516 *27:363 *27:370 0.621444
517 *27:362 *27:369 0.497155
518 *27:361 *27:368 1.4
519 *27:360 *27:367 0.497152
520 *27:359 *27:366 0.124289
521 *27:358 *27:365 1.4
522 *27:357 *27:364 1.4
523 *27:356 *27:363 1.4
524 *27:355 *27:362 1.4
525 *27:353 *27:361 0.124286
526 *27:352 *27:360 1.4
527 *27:350 *27:359 1.4
528 *27:350 *27:358 0.869982
529 *27:349 *27:357 2.2372
530 *27:349 *27:356 0.124289
531 *27:348 *27:355 0.124283
532 *27:347 *593:SE 1.4
533 *27:345 *27:353 1.4
534 *27:345 *27:352 4.4744
535 *27:344 *647:SE 1.4
536 *27:344 *27:350 1.36711
537 *27:343 *27:349 1.4
538 *27:342 *27:348 1.4
539 *27:341 *27:347 0.869979
540 *27:339 *959:SE 1.4
541 *27:339 *27:345 2.98293
542 *27:338 *27:344 1.4
543 *27:338 *27:343 1.1186
544 *27:337 *27:342 0.870021
545 *27:337 *27:341 1.4
546 *27:336 *781:SE 1.4
547 *27:335 *27:339 1.49141
548 *27:334 *27:338 0.99431
549 *27:333 *27:337 3.3558
550 *27:333 *27:336 1.4
551 *27:332 *27:335 1.4
552 *27:331 *27:334 1.4
553 *27:329 *27:333 1.49147
554 *27:329 *27:332 0.372866
555 *27:328 *27:331 0.372849
556 *27:326 *683:SE 1.4
557 *27:325 *27:329 1.4
558 *27:323 *27:328 1.4
559 *27:322 *528:SE 1.4
560 *27:321 *27:326 1.98853
561 *27:320 *27:325 0.745696
562 *27:319 *882:SE 1.4
563 *27:318 *27:323 1.98862
564 *27:317 *27:322 1.4
565 *27:316 *27:321 1.4
566 *27:315 *27:320 1.4
567 *27:314 *27:319 1.4
568 *27:312 *27:318 1.4
569 *27:311 *27:317 0.124283
570 *27:310 *27:316 2.2371
571 *27:309 *27:315 3.35566
572 *27:308 *27:314 0.124283
573 *27:307 *658:SE 1.4
574 *27:307 *27:312 0.497132
575 *27:304 *27:311 1.4
576 *27:303 *27:310 1.4
577 *27:301 *27:309 1.4
578 *27:300 *27:308 1.4
579 *27:300 *27:307 2.11281
580 *27:299 *905:SE 1.4
581 *27:298 *526:SE 1.4
582 *27:297 *27:304 2.36147
583 *27:297 *27:303 0.248566
584 *27:296 *607:SE 1.4
585 *27:296 *27:301 0.124283
586 *27:295 *27:300 0.124283
587 *27:293 *27:299 0.124283
588 *27:292 *27:298 0.124283
589 *27:291 *27:297 1.4
590 *27:290 *27:296 1.4
591 *27:289 *27:295 1.4
592 *27:288 *933:SE 1.4
593 *27:287 *27:293 1.4
594 *27:286 *27:292 1.4
595 *27:286 *27:291 0.994265
596 *27:284 *27:290 0.869982
597 *27:284 *27:289 3.72849
598 *27:283 *27:288 1.4
599 *27:282 *27:287 1.98853
600 *27:281 *27:286 2.11281
601 *27:280 *575:SE 1.4
602 *27:279 *27:284 1.4
603 *27:278 *27:283 0.124283
604 *27:277 *27:282 1.4
605 *27:276 *27:281 1.4
606 *27:273 *27:280 1.4
607 *27:272 *27:279 1.36711
608 *27:271 *27:278 1.4
609 *27:271 *27:277 0.621415
610 *27:270 *27:276 0.621415
611 *27:270 *682:SE 1.4
612 *27:268 *600:SE 1.4
613 *27:267 *27:273 1.11855
614 *27:267 *27:272 1.4
615 *27:265 *27:271 1.61568
616 *27:264 *27:270 1.4
617 *27:263 *903:SE 1.4
618 *27:262 *27:268 1.4
619 *27:261 *27:267 0.372849
620 *27:260 *964:SE 1.4
621 *27:259 *27:265 1.4
622 *27:259 *27:264 0.869982
623 *27:258 *27:263 1.4
624 *27:257 *27:262 0.124283
625 *27:256 *27:261 1.4
626 *27:255 *27:260 1.4
627 *27:255 *27:259 0.621416
628 *27:254 *27:258 0.372849
629 *27:253 *27:257 1.4
630 *27:253 *27:256 0.869981
631 *27:252 *27:255 0.124283
632 *27:251 *27:254 1.4
633 *27:251 *27:253 1.36711
634 *27:250 *27:252 1.4
635 *27:250 *27:251 4.59847
636 *27:247 *27:250 0.248566
637 *27:245 *538:SE 1.4
638 *27:242 *579:SE 1.4
639 *27:241 *27:247 1.4
640 *27:240 *532:SE 1.4
641 *27:239 *27:245 1.4
642 *27:238 *930:SE 1.4
643 *27:236 *602:SE 1.4
644 *27:235 *27:242 1.4
645 *27:234 *27:241 0.994265
646 *27:233 *27:240 1.4
647 *27:232 *27:239 0.124283
648 *27:231 *27:238 3.47993
649 *27:230 *951:SE 1.4
650 *27:229 *27:236 1.4
651 *27:228 *27:235 1.36713
652 *27:225 *27:234 1.4
653 *27:224 *27:233 0.124283
654 *27:223 *27:232 1.4
655 *27:222 *27:231 1.4
656 *27:221 *27:230 0.124283
657 *27:219 *27:229 1.24289
658 *27:218 *27:228 1.4
659 *27:218 *529:SE 1.4
660 *27:217 *546:SE 1.4
661 *27:217 *27:225 0.497132
662 *27:216 *27:224 1.4
663 *27:215 *27:223 0.870021
664 *27:214 *27:222 0.497133
665 *27:214 *27:221 1.4
666 *27:213 *603:SE 1.4
667 *27:212 *27:219 1.4
668 *27:211 *27:218 0.124289
669 *27:210 *27:217 2.1129
670 *27:208 *27:216 2.2372
671 *27:207 *27:215 1.4
672 *27:206 *27:214 0.497133
673 *27:205 *27:213 0.124283
674 *27:205 *27:212 0.745696
675 *27:204 *27:211 1.4
676 *27:203 *27:210 1.4
677 *27:201 *537:SE 1.4
678 *27:200 *27:208 1.4
679 *27:200 *27:207 0.124283
680 *27:199 *27:206 1.4
681 *27:197 *27:205 1.4
682 *27:196 *27:204 0.621415
683 *27:196 *27:203 0.869982
684 *27:195 *843:SE 1.4
685 *27:194 *27:201 1.4
686 *27:194 *27:200 0.994265
687 *27:193 *27:199 2.11281
688 *27:193 *949:SE 1.4
689 *27:192 *27:197 3.72859
690 *27:191 *27:196 1.4
691 *27:190 *27:195 1.4
692 *27:189 *27:194 1.73996
693 *27:188 *27:193 0.124283
694 *27:186 *27:192 1.4
695 *27:186 *27:191 4.4744
696 *27:184 *27:190 0.621444
697 *27:183 *27:189 1.4
698 *27:182 *27:188 1.4
699 *27:181 *841:SE 1.4
700 *27:180 *27:186 0.124289
701 *27:179 *534:SE 1.4
702 *27:178 *27:184 1.4
703 *27:177 *27:183 1.98862
704 *27:176 *27:182 2.11286
705 *27:175 *27:181 1.4
706 *27:174 *27:180 1.4
707 *27:173 *27:179 1.4
708 *27:172 *27:178 1.1186
709 *27:171 *27:177 1.4
710 *27:170 *27:176 1.4
711 *27:169 *27:175 0.124289
712 *27:168 *27:174 0.124283
713 *27:168 *27:173 0.869982
714 *27:167 *27:172 1.4
715 *27:167 *27:171 0.745733
716 *27:166 *27:170 1.1186
717 *27:166 *27:169 1.4
718 *27:164 *27:168 1.4
719 *27:163 *27:167 2.2372
720 *27:162 *27:166 0.870021
721 *27:161 *549:SE 1.4
722 *27:161 *27:164 1.36718
723 *27:159 *27:163 1.4
724 *27:158 *27:162 1.4
725 *27:157 *27:161 4.4744
726 *27:156 *547:SE 1.4
727 *27:156 *27:159 0.248578
728 *27:155 *27:158 0.745733
729 *27:155 *27:157 1.4
730 *27:154 *27:156 1.4
731 *27:153 *27:155 1.24289
732 *27:153 *27:154 0.248578
733 *27:151 *27:153 1.4
734 *27:150 *952:SE 1.4
735 *27:150 *27:151 5.46871
736 *27:148 *27:150 1.4
737 *27:147 *940:SE 1.4
738 *27:145 *27:148 0.745733
739 *27:145 *27:147 1.4
740 *27:144 *909:SE 1.4
741 *27:143 *27:145 0.745733
742 *27:142 *27:144 1.1186
743 *27:141 *27:143 1.4
744 *27:140 *27:142 1.4
745 *27:139 *27:141 1.1186
746 *27:137 *27:140 0.124289
747 *27:137 *27:139 1.4
748 *27:136 *953:SE 1.4
749 *27:134 *27:137 3.97724
750 *27:134 *27:136 1.4
751 *27:133 *924:SE 1.4
752 *27:132 *27:134 2.2372
753 *27:131 *27:133 1.1186
754 *27:131 *27:132 1.4
755 *27:129 *27:131 0.124289
756 *27:128 *926:SE 1.4
757 *27:127 *27:129 1.4
758 *27:126 *27:128 0.124283
759 *27:124 *27:127 1.49142
760 *27:124 *27:126 1.4
761 *27:123 *927:SE 1.4
762 *27:121 *27:124 0.621416
763 *27:120 *27:123 1.4
764 *27:119 *925:SE 1.4
765 *27:118 *27:121 1.4
766 *27:117 *27:120 0.372849
767 *27:116 *27:119 1.4
768 *27:115 *27:118 2.11281
769 *27:115 *27:117 1.4
770 *27:114 *27:116 0.124283
771 *27:113 *27:115 1.11854
772 *27:112 *27:114 1.4
773 *27:111 *27:113 1.4
774 *27:110 *27:112 2.23709
775 *27:108 *27:111 0.124283
776 *27:108 *27:110 1.4
777 *27:107 *937:SE 1.4
778 *27:106 *27:108 0.124283
779 *27:106 *27:107 1.4
780 *27:105 *27:106 1.11855
781 *27:104 *27:105 1.4
782 *27:102 *27:104 1.11854
783 *27:102 *954:SE 1.4
784 *27:101 *27:102 0.372848
785 *27:99 *27:101 1.4
786 *27:96 *955:SE 1.4
787 *27:95 *27:99 1.4914
788 *27:94 *938:SE 1.4
789 *27:93 *943:SE 1.4
790 *27:92 *27:96 1.11854
791 *27:91 *27:95 1.4
792 *27:90 *27:94 1.4
793 *27:89 *27:93 1.4
794 *27:88 *27:92 1.4
795 *27:87 *27:91 0.745696
796 *27:84 *27:90 0.372849
797 *27:83 *27:89 0.124283
798 *27:82 *27:88 0.124283
799 *27:82 *27:87 1.4
800 *27:81 *934:SE 1.4
801 *27:80 *908:SE 1.4
802 *27:79 *27:84 1.4
803 *27:78 *27:83 1.4
804 *27:77 *27:82 2.9828
805 *27:77 *27:81 1.4
806 *27:76 *27:80 1.4
807 *27:75 *27:79 2.23709
808 *27:74 *27:78 1.11854
809 *27:73 *27:77 0.745699
810 *27:72 *27:76 0.248566
811 *27:72 *27:75 1.4
812 *27:71 *27:74 1.4
813 *27:70 *27:73 1.4
814 *27:69 *27:72 2.60995
815 *27:69 *27:71 0.124283
816 *27:68 *27:70 1.11854
817 *27:67 *27:69 1.4
818 *27:66 *27:68 1.4
819 *27:65 *27:67 3.35563
820 *27:63 *27:66 0.124283
821 *27:63 *27:65 1.4
822 *27:62 *911:SE 1.4
823 *27:60 *27:63 0.248566
824 *27:60 *27:62 1.4
825 *27:59 *935:SE 1.4
826 *27:58 *27:60 3.23136
827 *27:57 *27:59 1.1186
828 *27:56 *27:58 1.4
829 *27:55 *27:57 1.4
830 *27:54 *27:56 1.1186
831 *27:52 *27:55 0.124283
832 *27:52 *27:54 1.4
833 *27:51 *910:SE 1.4
834 *27:50 *27:52 1.49139
835 *27:50 *27:51 1.4
836 *27:48 *27:50 0.124283
837 *27:47 *913:SE 1.4
838 *27:46 *27:48 1.4
839 *27:44 *27:47 1.4
840 *27:43 *27:46 2.2372
841 *27:43 *912:SE 1.4
842 *27:42 *27:44 0.124283
843 *27:41 *27:43 1.1186
844 *27:41 *27:42 1.4
845 *27:40 *27:41 0.372866
846 *27:38 *27:40 1.4
847 *27:37 *914:SE 1.4
848 *27:34 *27:38 1.73996
849 *27:33 *27:37 1.4
850 *27:32 *919:SE 1.4
851 *27:31 *917:SE 1.4
852 *27:30 *27:34 1.4
853 *27:29 *27:33 0.124283
854 *27:28 *27:32 1.4
855 *27:27 *27:31 1.4
856 *27:26 *27:30 1.86427
857 *27:26 *27:29 1.4
858 *27:25 *27:28 0.497155
859 *27:24 *27:27 0.124283
860 *27:22 *27:26 3.35563
861 *27:21 *27:25 1.4
862 *27:20 *27:24 1.4
863 *27:19 *915:SE 1.4
864 *27:18 *27:22 1.4
865 *27:17 *27:21 1.11854
866 *27:16 *27:20 4.47418
867 *27:15 *27:19 1.4
868 *27:15 *27:18 0.124283
869 *27:14 *27:17 1.4
870 *27:13 *27:16 1.4
871 *27:13 *27:15 0.124283
872 *27:12 *27:14 0.248578
873 *27:12 *27:13 4.97139
874 *27:10 *27:12 1.4
875 *27:9 *947:SE 1.4
876 *27:8 *27:10 2.23709
877 *27:7 *27:9 1.4
878 *27:6 *27:8 1.4
879 *27:6 *27:7 0.248578
880 *27:5 *27:6 1.4
881 *27:4 *27:5 5.59278
882 *27:3 *27:4 1.4
883 *27:2 *27:3 0.248578
884 *27:1 *27:2 1.4
885 *944:SE *27:1 1.4
*END

*D_NET *28 0.00577438

*CONN
*I *839:SI I *C 89.465 101.935 *L 0.00276 *D SDFFRHQX1
*P *28 I *C 119.19 117.73 *L 0

*CAP
1 *28:2 2.07733e-05
2 *28:3 2.07733e-05
3 *28:4 0.00102432
4 *28:5 0.00102432
5 *28:6 0.00181055
6 *28:7 0.00181055
7 *28:8 1.60563e-05
8 *28:9 1.60563e-05
9 *28:10 8.02387e-06
10 *28:11 1.54944e-05
11 *28 7.4705e-06

*RES
1 *28:11 *28 0.0578586
2 *28:10 *28:11 0.0621444
3 *28:9 *28:10 1.4
4 *28:8 *28:9 0.124286
5 *28:7 *28:8 1.4
6 *28:6 *28:7 12.8017
7 *28:5 *28:6 1.4
8 *28:4 *28:5 6.5873
9 *28:3 *28:4 1.4
10 *28:2 *28:3 0.124289
11 *28:1 *28:2 1.4
12 *839:SI *28:1 1.4
*END

*D_NET *29 0.00151179

*CONN
*I *896:SI I *C 6.525 42.195 *L 0.00268 *D SDFFRHQX4
*P *29 I *C 0 46.255 *L 0

*CAP
1 *29:2 0.000333957
2 *29:3 0.000333957
3 *29:4 0.000313895
4 *29:5 0.000313895
5 *29:6 0.000108045
6 *29 0.000108045

*RES
1 *29:6 *29 0.683588
2 *29:5 *29:6 1.4
3 *29:4 *29:5 1.74004
4 *29:3 *29:4 1.4
5 *29:2 *29:3 2.11291
6 *29:1 *29:2 1.4
7 *896:SI *29:1 1.4
*END

*D_NET *30 0.00149037

*CONN
*I *917:D I *C 111.215 47.415 *L 0.00289 *D SDFFRHQX4
*P *30 I *C 119.19 44.15 *L 0

*CAP
1 *30:1 0.000219623
2 *30:2 0.000219623
3 *30:3 0.000520663
4 *30:4 0.00052556
5 *30 4.89652e-06

*RES
1 *30:4 *30 0.0321422
2 *30:3 *30:4 3.41779
3 *30:2 *30:3 1.4
4 *30:1 *30:2 1.36711
5 *917:D *30:1 1.4
*END

*D_NET *31 0.0023958

*CONN
*I *947:D I *C 103.965 42.195 *L 0.00289 *D SDFFRHQX4
*P *31 I *C 119.19 39.245 *L 0

*CAP
1 *31:2 0.000985511
2 *31:3 0.000985511
3 *31:4 0.000199657
4 *31:5 0.000199657
5 *31:6 9.4666e-06
6 *31:7 1.27309e-05
7 *31 3.26434e-06

*RES
1 *31:7 *31 0.0214282
2 *31:6 *31:7 0.0621416
3 *31:5 *31:6 1.4
4 *31:4 *31:5 1.24283
5 *31:3 *31:4 1.4
6 *31:2 *31:3 6.46274
7 *31:1 *31:2 1.4
8 *947:D *31:1 1.4
*END

*D_NET *32 0.00140397

*CONN
*I *915:D I *C 111.215 36.975 *L 0.00289 *D SDFFRHQX4
*P *32 I *C 119.19 34.34 *L 0

*CAP
1 *32:1 0.000179692
2 *32:2 0.000179692
3 *32:3 0.000520663
4 *32:4 0.000522295
5 *32 1.63217e-06

*RES
1 *32:4 *32 0.0107141
2 *32:3 *32:4 3.41779
3 *32:2 *32:3 1.4
4 *32:1 *32:2 1.11854
5 *915:D *32:1 1.4
*END

*D_NET *33 0.00116112

*CONN
*I *914:D I *C 111.215 28.565 *L 0.00289 *D SDFFRHQX4
*P *33 I *C 119.19 29.435 *L 0

*CAP
1 *33:1 1.99657e-05
2 *33:2 1.99657e-05
3 *33:3 0.000511196
4 *33:4 0.000511196
5 *33:5 3.99315e-05
6 *33:6 3.99315e-05
7 *33:7 9.4666e-06
8 *33 9.4666e-06

*RES
1 *33:7 *33 0.0621416
2 *33:6 *33:7 1.4
3 *33:5 *33:6 0.248565
4 *33:4 *33:5 1.4
5 *33:3 *33:4 3.35565
6 *33:2 *33:3 1.4
7 *33:1 *33:2 0.124283
8 *914:D *33:1 1.4
*END

*D_NET *34 0.00158934

*CONN
*I *913:D I *C 107.155 23.345 *L 0.00289 *D SDFFRHQX4
*P *34 I *C 119.19 24.525 *L 0

*CAP
1 *34:1 3.43038e-05
2 *34:2 3.43038e-05
3 *34:3 0.000716123
4 *34:4 0.000716123
5 *34:5 3.43038e-05
6 *34:6 3.43038e-05
7 *34:7 8.73321e-06
8 *34:8 9.93779e-06
9 *34 1.20458e-06

*RES
1 *34:8 *34 0.00857122
2 *34:7 *34:8 0.0621413
3 *34:6 *34:7 1.4
4 *34:5 *34:6 0.248578
5 *34:4 *34:5 1.4
6 *34:3 *34:4 5.09559
7 *34:2 *34:3 1.4
8 *34:1 *34:2 0.248578
9 *913:D *34:1 1.4
*END

*D_NET *35 0.00169463

*CONN
*I *912:D I *C 107.445 21.315 *L 0.00289 *D SDFFRHQX4
*P *35 I *C 119.19 19.62 *L 0

*CAP
1 *35:1 0.000120063
2 *35:2 0.000120063
3 *35:3 0.000698657
4 *35:4 0.000698657
5 *35:5 1.71519e-05
6 *35:6 1.71519e-05
7 *35:7 8.73321e-06
8 *35:8 1.14435e-05
9 *35 2.71031e-06

*RES
1 *35:8 *35 0.0192852
2 *35:7 *35:8 0.0621413
3 *35:6 *35:7 1.4
4 *35:5 *35:6 0.124289
5 *35:4 *35:5 1.4
6 *35:3 *35:4 4.97131
7 *35:2 *35:3 1.4
8 *35:1 *35:2 0.870021
9 *912:D *35:1 1.4
*END

*D_NET *36 0.00284274

*CONN
*I *911:D I *C 100.195 18.125 *L 0.00289 *D SDFFRHQX4
*P *36 I *C 119.19 14.715 *L 0

*CAP
1 *36:1 0.000219492
2 *36:2 0.000219492
3 *36:3 0.00117178
4 *36:4 0.00117178
5 *36:5 1.71519e-05
6 *36:6 1.71519e-05
7 *36:7 8.73321e-06
8 *36:8 1.29492e-05
9 *36 4.21603e-06

*RES
1 *36:8 *36 0.0299993
2 *36:7 *36:8 0.0621413
3 *36:6 *36:7 1.4
4 *36:5 *36:6 0.124289
5 *36:4 *36:5 1.4
6 *36:3 *36:4 8.07838
7 *36:2 *36:3 1.4
8 *36:1 *36:2 1.36711
9 *911:D *36:1 1.4
*END

*D_NET *37 0.00221584

*CONN
*I *910:D I *C 107.155 16.095 *L 0.00289 *D SDFFRHQX4
*P *37 I *C 119.19 9.81 *L 0

*CAP
1 *37:1 0.000377342
2 *37:2 0.000377342
3 *37:3 0.000724856
4 *37:4 0.000730578
5 *37 5.72176e-06

*RES
1 *37:4 *37 0.0407133
2 *37:3 *37:4 5.15773
3 *37:2 *37:3 1.4
4 *37:1 *37:2 2.73435
5 *910:D *37:1 1.4
*END

*D_NET *38 0.00204278

*CONN
*I *918:D I *C 103.965 83.955 *L 0.00289 *D SDFFRHQX4
*P *38 I *C 119.19 83.395 *L 0

*CAP
1 *38:1 2.17156e-05
2 *38:2 2.17156e-05
3 *38:3 0.000970311
4 *38:4 0.000970311
5 *38:5 1.87826e-05
6 *38:6 1.87826e-05
7 *38:7 9.29853e-06
8 *38:8 1.05811e-05
9 *38 1.28256e-06

*RES
1 *38:8 *38 0.00857126
2 *38:7 *38:8 0.0621417
3 *38:6 *38:7 1.4
4 *38:5 *38:6 0.124288
5 *38:4 *38:5 1.4
6 *38:3 *38:4 6.46274
7 *38:2 *38:3 1.4
8 *38:1 *38:2 0.124289
9 *918:D *38:1 1.4
*END

*D_NET *39 0.00110337

*CONN
*I *923:D I *C 110.925 78.735 *L 0.00289 *D SDFFRHQX4
*P *39 I *C 119.19 78.49 *L 0

*CAP
1 *39:1 1.87826e-05
2 *39:2 1.87826e-05
3 *39:3 0.000530016
4 *39:4 0.000532902
5 *39 2.88575e-06

*RES
1 *39:4 *39 0.0192853
2 *39:3 *39:4 3.54207
3 *39:2 *39:3 1.4
4 *39:1 *39:2 0.124288
5 *923:D *39:1 1.4
*END

*D_NET *40 0.0022888

*CONN
*I *945:D I *C 103.965 75.545 *L 0.00289 *D SDFFRHQX4
*P *40 I *C 119.19 73.58 *L 0

*CAP
1 *40:1 0.00015297
2 *40:2 0.00015297
3 *40:3 0.000987226
4 *40:4 0.000991432
5 *40 4.20525e-06

*RES
1 *40:4 *40 0.0278566
2 *40:3 *40:4 6.52488
3 *40:2 *40:3 1.4
4 *40:1 *40:2 0.870021
5 *945:D *40:1 1.4
*END

*D_NET *41 0.0016988

*CONN
*I *922:D I *C 111.215 73.515 *L 0.00289 *D SDFFRHQX4
*P *41 I *C 119.19 68.675 *L 0

*CAP
1 *41:1 0.000327624
2 *41:2 0.000327624
3 *41:3 0.000515951
4 *41:4 0.000521774
5 *41 5.82265e-06

*RES
1 *41:4 *41 0.0385707
2 *41:3 *41:4 3.41779
3 *41:2 *41:3 1.4
4 *41:1 *41:2 2.11281
5 *922:D *41:1 1.4
*END

*D_NET *42 0.00174057

*CONN
*I *921:D I *C 111.215 68.295 *L 0.00289 *D SDFFRHQX4
*P *42 I *C 119.19 63.77 *L 0

*CAP
1 *42:2 1.87619e-05
2 *42:3 1.87619e-05
3 *42:4 0.000327624
4 *42:5 0.000327624
5 *42:6 0.000487808
6 *42:7 0.000487808
7 *42:8 1.9272e-05
8 *42:9 1.9272e-05
9 *42:10 9.38093e-06
10 *42:11 1.6821e-05
11 *42 7.44005e-06

*RES
1 *42:11 *42 0.0492848
2 *42:10 *42:11 0.0621417
3 *42:9 *42:10 1.4
4 *42:8 *42:9 0.124283
5 *42:7 *42:8 1.4
6 *42:6 *42:7 3.23137
7 *42:5 *42:6 1.4
8 *42:4 *42:5 2.11281
9 *42:3 *42:4 1.4
10 *42:2 *42:3 0.124283
11 *42:1 *42:2 1.4
12 *921:D *42:1 1.4
*END

*D_NET *43 0.00178235

*CONN
*I *920:D I *C 111.215 63.075 *L 0.00289 *D SDFFRHQX4
*P *43 I *C 119.19 58.865 *L 0

*CAP
1 *43:1 0.000327624
2 *43:2 0.000327624
3 *43:3 0.00050657
4 *43:4 0.00050657
5 *43:5 3.8544e-05
6 *43:6 3.8544e-05
7 *43:7 9.38093e-06
8 *43:8 1.84384e-05
9 *43 9.05745e-06

*RES
1 *43:8 *43 0.0599988
2 *43:7 *43:8 0.0621417
3 *43:6 *43:7 1.4
4 *43:5 *43:6 0.248565
5 *43:4 *43:5 1.4
6 *43:3 *43:4 3.35565
7 *43:2 *43:3 1.4
8 *43:1 *43:2 2.11281
9 *920:D *43:1 1.4
*END

*D_NET *44 0.00207288

*CONN
*I *944:D I *C 103.965 54.665 *L 0.00289 *D SDFFRHQX4
*P *44 I *C 119.19 53.96 *L 0

*CAP
1 *44:1 2.18528e-05
2 *44:2 2.18528e-05
3 *44:3 0.000977846
4 *44:4 0.000977846
5 *44:5 1.9272e-05
6 *44:6 1.9272e-05
7 *44:7 9.38093e-06
8 *44:8 1.74679e-05
9 *44 8.08701e-06

*RES
1 *44:8 *44 0.0535704
2 *44:7 *44:8 0.0621417
3 *44:6 *44:7 1.4
4 *44:5 *44:6 0.124283
5 *44:4 *44:5 1.4
6 *44:3 *44:4 6.46274
7 *44:2 *44:3 1.4
8 *44:1 *44:2 0.124289
9 *944:D *44:1 1.4
*END

*D_NET *45 0.00435608

*CONN
*I *919:D I *C 103.965 33.785 *L 0.00289 *D SDFFRHQX4
*P *45 I *C 119.19 49.055 *L 0

*CAP
1 *45:1 0.00117654
2 *45:2 0.00117654
3 *45:3 0.000994978
4 *45:4 0.00100151
5 *45 6.52869e-06

*RES
1 *45:4 *45 0.0428563
2 *45:3 *45:4 6.52488
3 *45:2 *45:3 1.4
4 *45:1 *45:2 6.58698
5 *919:D *45:1 1.4
*END

*D_NET *46 0.00307697

*CONN
*I *967:D I *C 32.915 18.125 *L 0.00289 *D SDFFRHQX4
*P *46 I *C 29.795 0 *L 0

*CAP
1 *46:1 3.955e-05
2 *46:2 3.955e-05
3 *46:3 0.000198794
4 *46:4 0.000198794
5 *46:5 0.0012656
6 *46:6 0.0012656
7 *46:7 1.98794e-05
8 *46:8 1.98794e-05
9 *46:9 9.8875e-06
10 *46:10 1.46608e-05
11 *46 4.77327e-06

*RES
1 *46:10 *46 0.0299994
2 *46:9 *46:10 0.0621416
3 *46:8 *46:9 1.4
4 *46:7 *46:8 0.124283
5 *46:6 *46:7 1.4
6 *46:5 *46:6 7.95412
7 *46:4 *46:5 1.4
8 *46:3 *46:4 1.24283
9 *46:2 *46:3 1.4
10 *46:1 *46:2 0.248566
11 *967:D *46:1 1.4
*END

*D_NET *47 0.00228631

*CONN
*I *961:D I *C 25.665 16.095 *L 0.00289 *D SDFFRHQX4
*P *47 I *C 25.54 0 *L 0

*CAP
1 *47:1 0.00113435
2 *47:2 0.00114316
3 *47 8.80977e-06

*RES
1 *47:2 *47 0.0535701
2 *47:1 *47:2 6.89769
3 *961:D *47:1 1.4
*END

*D_NET *48 0.00209331

*CONN
*I *960:D I *C 24.795 10.875 *L 0.00289 *D SDFFRHQX4
*P *48 I *C 21.28 0 *L 0

*CAP
1 *48:1 2.04387e-05
2 *48:2 2.04387e-05
3 *48:3 0.000236863
4 *48:4 0.000236863
5 *48:5 0.000786889
6 *48:6 0.000789355
7 *48 2.46674e-06

*RES
1 *48:6 *48 0.0149996
2 *48:5 *48:6 4.78488
3 *48:4 *48:5 1.4
4 *48:3 *48:4 1.49146
5 *48:2 *48:3 1.4
6 *48:1 *48:2 0.124283
7 *960:D *48:1 1.4
*END

*D_NET *49 0.00206884

*CONN
*I *962:D I *C 25.665 5.655 *L 0.00289 *D SDFFRHQX4
*P *49 I *C 17.025 0 *L 0

*CAP
1 *49:2 1.97386e-05
2 *49:3 1.97386e-05
3 *49:4 0.000265703
4 *49:5 0.000265703
5 *49:6 0.000611897
6 *49:7 0.000611897
7 *49:8 0.000132851
8 *49:9 0.00013708
9 *49 4.22869e-06

*RES
1 *49:9 *49 0.0257137
2 *49:8 *49:9 0.807837
3 *49:7 *49:8 1.4
4 *49:6 *49:7 3.85295
5 *49:5 *49:6 1.4
6 *49:4 *49:5 1.61567
7 *49:3 *49:4 1.4
8 *49:2 *49:3 0.124289
9 *49:1 *49:2 1.4
10 *962:D *49:1 1.4
*END

*D_NET *50 0.00136882

*CONN
*I *963:D I *C 8.845 5.655 *L 0.00289 *D SDFFRHQX4
*P *50 I *C 12.77 0 *L 0

*CAP
1 *50:1 0.000265703
2 *50:2 0.000265703
3 *50:3 0.00027634
4 *50:4 0.00027634
5 *50:5 0.000132851
6 *50:6 0.000142366
7 *50 9.51455e-06

*RES
1 *50:6 *50 0.0578557
2 *50:5 *50:6 0.807837
3 *50:4 *50:5 1.4
4 *50:3 *50:4 1.74004
5 *50:2 *50:3 1.4
6 *50:1 *50:2 1.61567
7 *963:D *50:1 1.4
*END

*D_NET *51 0.00252547

*CONN
*I *966:D I *C 15.805 10.875 *L 0.00289 *D SDFFRHQX4
*P *51 I *C 8.515 0 *L 0

*CAP
1 *51:1 0.00061316
2 *51:2 0.00061316
3 *51:3 0.000493465
4 *51:4 0.000493465
5 *51:5 0.00015329
6 *51:6 0.000156109
7 *51 2.81913e-06

*RES
1 *51:6 *51 0.0171424
2 *51:5 *51:6 0.93212
3 *51:4 *51:5 1.4
4 *51:3 *51:4 3.10722
5 *51:2 *51:3 1.4
6 *51:1 *51:2 3.72848
7 *966:D *51:1 1.4
*END

*D_NET *52 0.00241825

*CONN
*I *965:D I *C 8.555 12.905 *L 0.00289 *D SDFFRHQX4
*P *52 I *C 4.255 0 *L 0

*CAP
1 *52:1 0.000735792
2 *52:2 0.000735792
3 *52:3 0.000296079
4 *52:4 0.000296079
5 *52:5 0.000173729
6 *52:6 0.000177253
7 *52 3.52391e-06

*RES
1 *52:6 *52 0.021428
2 *52:5 *52:6 1.0564
3 *52:4 *52:5 1.4
4 *52:3 *52:4 1.86433
5 *52:2 *52:3 1.4
6 *52:1 *52:2 4.47418
7 *965:D *52:1 1.4
*END

*D_NET *53 0.00343397

*CONN
*I *968:D I *C 8.555 16.095 *L 0.00289 *D SDFFRHQX4
*P *53 I *C 0 0 *L 0

*CAP
1 *53:2 0.000315818
2 *53:3 0.000315818
3 *53:4 0.00112413
4 *53:5 0.00112413
5 *53:6 0.000256602
6 *53:7 0.000256602
7 *53:8 1.02193e-05
8 *53:9 2.04387e-05
9 *53 1.02193e-05

*RES
1 *53:9 *53 0.0621413
2 *53:8 *53:9 0.0621413
3 *53:7 *53:8 1.4
4 *53:6 *53:7 1.61575
5 *53:5 *53:6 1.4
6 *53:4 *53:5 6.83555
7 *53:3 *53:4 1.4
8 *53:2 *53:3 1.98862
9 *53:1 *53:2 1.4
10 *968:D *53:1 1.4
*END

*D_NET *54 0.00191092

*CONN
*I *953:D I *C 69.745 7.685 *L 0.00289 *D SDFFRHQX4
*P *54 I *C 63.845 0 *L 0

*CAP
1 *54:1 0.000419608
2 *54:2 0.000419608
3 *54:3 0.000419067
4 *54:4 0.000419067
5 *54:5 0.000109897
6 *54:6 0.000116787
7 *54 6.89011e-06

*RES
1 *54:6 *54 0.0428582
2 *54:5 *54:6 0.683588
3 *54:4 *54:5 1.4
4 *54:3 *54:4 2.48578
5 *54:2 *54:3 1.4
6 *54:1 *54:2 2.61006
7 *953:D *54:1 1.4
*END

*D_NET *55 0.00196026

*CONN
*I *940:D I *C 62.785 10.875 *L 0.00289 *D SDFFRHQX4
*P *55 I *C 59.59 0 *L 0

*CAP
1 *55:2 0.000230487
2 *55:3 0.000230487
3 *55:4 0.000749299
4 *55:5 0.000749644
5 *55 3.44506e-07

*RES
1 *55:5 *55 0.00214291
2 *55:4 *55:5 4.66083
3 *55:3 *55:4 1.4
4 *55:2 *55:3 1.36718
5 *55:1 *55:2 1.4
6 *940:D *55:1 1.4
*END

*D_NET *56 0.00184626

*CONN
*I *952:D I *C 56.985 10.875 *L 0.00289 *D SDFFRHQX4
*P *56 I *C 55.335 0 *L 0

*CAP
1 *56:2 2.09534e-05
2 *56:3 2.09534e-05
3 *56:4 0.000639402
4 *56:5 0.000639402
5 *56:6 0.000146674
6 *56:7 0.000146674
7 *56:8 0.000109897
8 *56:9 0.000116098
9 *56 6.2011e-06

*RES
1 *56:9 *56 0.0385724
2 *56:8 *56:9 0.683588
3 *56:7 *56:8 1.4
4 *56:6 *56:7 0.870021
5 *56:5 *56:6 1.4
6 *56:4 *56:5 3.97724
7 *56:3 *56:4 1.4
8 *56:2 *56:3 0.124289
9 *56:1 *56:2 1.4
10 *952:D *56:1 1.4
*END

*D_NET *57 0.00197267

*CONN
*I *951:D I *C 50.315 12.905 *L 0.00289 *D SDFFRHQX4
*P *57 I *C 51.08 0 *L 0

*CAP
1 *57:1 1.9775e-05
2 *57:2 1.9775e-05
3 *57:3 5.96382e-05
4 *57:4 5.96382e-05
5 *57:5 0.000899762
6 *57:6 0.000906922
7 *57 7.15991e-06

*RES
1 *57:6 *57 0.0449991
2 *57:5 *57:6 5.65488
3 *57:4 *57:5 1.4
4 *57:3 *57:4 0.372849
5 *57:2 *57:3 1.4
6 *57:1 *57:2 0.124283
7 *951:D *57:1 1.4
*END

*D_NET *58 0.00109134

*CONN
*I *930:D I *C 49.155 5.655 *L 0.00289 *D SDFFRHQX4
*P *58 I *C 46.82 0 *L 0

*CAP
1 *58:1 0.00027685
2 *58:2 0.00027685
3 *58:3 0.000159035
4 *58:4 0.000159035
5 *58:5 0.000108762
6 *58:6 0.000109785
7 *58 1.02284e-06

*RES
1 *58:6 *58 0.00642844
2 *58:5 *58:6 0.683557
3 *58:4 *58:5 1.4
4 *58:3 *58:4 0.994265
5 *58:2 *58:3 1.4
6 *58:1 *58:2 1.73996
7 *930:D *58:1 1.4
*END

*D_NET *59 0.00177464

*CONN
*I *950:D I *C 37.265 7.685 *L 0.00289 *D SDFFRHQX4
*P *59 I *C 42.565 0 *L 0

*CAP
1 *59:2 0.000357829
2 *59:3 0.000357829
3 *59:4 0.000524037
4 *59:5 0.000529493
5 *59 5.45517e-06

*RES
1 *59:5 *59 0.034285
2 *59:4 *59:5 3.2935
3 *59:3 *59:4 1.4
4 *59:2 *59:3 2.2371
5 *59:1 *59:2 1.4
6 *950:D *59:1 1.4
*END

*D_NET *60 0.00387828

*CONN
*I *949:D I *C 47.415 18.125 *L 0.00289 *D SDFFRHQX4
*P *60 I *C 38.31 0 *L 0

*CAP
1 *60:1 3.955e-05
2 *60:2 3.955e-05
3 *60:3 0.000616261
4 *60:4 0.000616261
5 *60:5 0.00127549
6 *60:6 0.00128333
7 *60 7.84181e-06

*RES
1 *60:6 *60 0.0492847
2 *60:5 *60:6 8.01626
3 *60:4 *60:5 1.4
4 *60:3 *60:4 3.85278
5 *60:2 *60:3 1.4
6 *60:1 *60:2 0.248566
7 *949:D *60:1 1.4
*END

*D_NET *61 0.00196364

*CONN
*I *942:D I *C 37.555 10.875 *L 0.00289 *D SDFFRHQX4
*P *61 I *C 34.05 0 *L 0

*CAP
1 *61:1 0.0006328
2 *61:2 0.0006328
3 *61:3 0.000238553
4 *61:4 0.000238553
5 *61:5 0.000108762
6 *61:6 0.000110467
7 *61 1.70474e-06

*RES
1 *61:6 *61 0.0107141
2 *61:5 *61:6 0.683557
3 *61:4 *61:5 1.4
4 *61:3 *61:4 1.4914
5 *61:2 *61:3 1.4
6 *61:1 *61:2 3.97706
7 *942:D *61:1 1.4
*END

*D_NET *62 0.00132544

*CONN
*I *956:D I *C 111.215 104.835 *L 0.00289 *D SDFFRHQX4
*P *62 I *C 119.19 103.015 *L 0

*CAP
1 *62:1 0.000127389
2 *62:2 0.000127389
3 *62:3 0.000502121
4 *62:4 0.000502121
5 *62:5 1.87826e-05
6 *62:6 1.87826e-05
7 *62:7 9.29853e-06
8 *62:8 1.44288e-05
9 *62 5.13022e-06

*RES
1 *62:8 *62 0.0342851
2 *62:7 *62:8 0.0621417
3 *62:6 *62:7 1.4
4 *62:5 *62:6 0.124288
5 *62:4 *62:5 1.4
6 *62:3 *62:4 3.35565
7 *62:2 *62:3 1.4
8 *62:1 *62:2 0.870014
9 *956:D *62:1 1.4
*END

*D_NET *63 0.00133041

*CONN
*I *958:D I *C 111.215 96.425 *L 0.00289 *D SDFFRHQX4
*P *63 I *C 119.19 98.11 *L 0

*CAP
1 *63:1 0.000131478
2 *63:2 0.000131478
3 *63:3 0.000502121
4 *63:4 0.000502121
5 *63:5 1.87826e-05
6 *63:6 1.87826e-05
7 *63:7 9.29853e-06
8 *63:8 1.28256e-05
9 *63 3.52703e-06

*RES
1 *63:8 *63 0.023571
2 *63:7 *63:8 0.0621417
3 *63:6 *63:7 1.4
4 *63:5 *63:6 0.124288
5 *63:4 *63:5 1.4
6 *63:3 *63:4 3.35565
7 *63:2 *63:3 1.4
8 *63:1 *63:2 0.870017
9 *958:D *63:1 1.4
*END

*D_NET *64 0.00212506

*CONN
*I *957:D I *C 103.965 94.395 *L 0.00289 *D SDFFRHQX4
*P *64 I *C 119.19 93.205 *L 0

*CAP
1 *64:1 4.34311e-05
2 *64:2 4.34311e-05
3 *64:3 0.000970311
4 *64:4 0.000970311
5 *64:5 3.75653e-05
6 *64:6 3.75653e-05
7 *64:7 9.29853e-06
8 *64:8 1.12224e-05
9 *64 1.92383e-06

*RES
1 *64:8 *64 0.0128569
2 *64:7 *64:8 0.0621417
3 *64:6 *64:7 1.4
4 *64:5 *64:6 0.248576
5 *64:4 *64:5 1.4
6 *64:3 *64:4 6.46274
7 *64:2 *64:3 1.4
8 *64:1 *64:2 0.248578
9 *957:D *64:1 1.4
*END

*D_NET *65 0.00113618

*CONN
*I *946:D I *C 111.215 89.175 *L 0.00289 *D SDFFRHQX4
*P *65 I *C 119.19 88.3 *L 0

*CAP
1 *65:1 3.75653e-05
2 *65:2 3.75653e-05
3 *65:3 0.000502121
4 *65:4 0.000502121
5 *65:5 1.87826e-05
6 *65:6 1.87826e-05
7 *65:7 9.29853e-06
8 *65:8 9.61917e-06
9 *65 3.20639e-07

*RES
1 *65:8 *65 0.00214282
2 *65:7 *65:8 0.0621417
3 *65:6 *65:7 1.4
4 *65:5 *65:6 0.124288
5 *65:4 *65:5 1.4
6 *65:3 *65:4 3.35565
7 *65:2 *65:3 1.4
8 *65:1 *65:2 0.248576
9 *946:D *65:1 1.4
*END

*D_NET *66 0.00346058

*CONN
*I *943:D I *C 99.615 7.685 *L 0.00289 *D SDFFRHQX4
*P *66 I *C 119.18 0 *L 0

*CAP
1 *66:1 0.000399077
2 *66:2 0.000399077
3 *66:3 0.00121174
4 *66:4 0.00121174
5 *66:5 0.000111487
6 *66:6 0.000119472
7 *66 7.9845e-06

*RES
1 *66:6 *66 0.0578586
2 *66:5 *66:6 0.807877
3 *66:4 *66:5 1.4
4 *66:3 *66:4 8.32695
5 *66:2 *66:3 1.4
6 *66:1 *66:2 2.48565
7 *943:D *66:1 1.4
*END

*D_NET *67 0.00340822

*CONN
*I *938:D I *C 94.395 5.655 *L 0.00289 *D SDFFRHQX4
*P *67 I *C 114.925 0 *L 0

*CAP
1 *67:1 0.000279354
2 *67:2 0.000279354
3 *67:3 0.00132687
4 *67:4 0.00132687
5 *67:5 9.43354e-05
6 *67:6 9.78841e-05
7 *67 3.54867e-06

*RES
1 *67:6 *67 0.0257149
2 *67:5 *67:6 0.683588
3 *67:4 *67:5 1.4
4 *67:3 *67:4 8.82409
5 *67:2 *67:3 1.4
6 *67:1 *67:2 1.73996
7 *938:D *67:1 1.4
*END

*D_NET *68 0.00262332

*CONN
*I *935:D I *C 103.385 12.905 *L 0.00289 *D SDFFRHQX4
*P *68 I *C 110.67 0 *L 0

*CAP
1 *68:1 0.000718339
2 *68:2 0.000718339
3 *68:3 0.000445462
4 *68:4 0.000445462
5 *68:5 0.000145791
6 *68:6 0.000147861
7 *68 2.07006e-06

*RES
1 *68:6 *68 0.0150004
2 *68:5 *68:6 1.05645
3 *68:4 *68:5 1.4
4 *68:3 *68:4 3.10707
5 *68:2 *68:3 1.4
6 *68:1 *68:2 4.47418
7 *935:D *68:1 1.4
*END

*D_NET *69 0.00433597

*CONN
*I *934:D I *C 93.525 21.315 *L 0.00289 *D SDFFRHQX4
*P *69 I *C 106.41 0 *L 0

*CAP
1 *69:1 1.99539e-05
2 *69:2 1.99539e-05
3 *69:3 0.00086282
4 *69:4 0.00086282
5 *69:5 0.00127782
6 *69:6 0.00128521
7 *69 7.39306e-06

*RES
1 *69:6 *69 0.0535727
2 *69:5 *69:6 9.25951
3 *69:4 *69:5 1.4
4 *69:3 *69:4 5.46846
5 *69:2 *69:3 1.4
6 *69:1 *69:2 0.124283
7 *934:D *69:1 1.4
*END

*D_NET *70 0.00114494

*CONN
*I *896:D I *C 7.975 42.195 *L 0.00289 *D SDFFRHQX4
*P *70 I *C 0 42.05 *L 0

*CAP
1 *70:1 2.24211e-05
2 *70:2 2.24211e-05
3 *70:3 0.000540224
4 *70:4 0.000550047
5 *70 9.82226e-06

*RES
1 *70:4 *70 0.0621444
2 *70:3 *70:4 3.41794
3 *70:2 *70:3 1.4
4 *70:1 *70:2 0.124289
5 *896:D *70:1 1.4
*END

*D_NET *71 0.00125426

*CONN
*I *931:D I *C 8.265 36.975 *L 0.00289 *D SDFFRHQX4
*P *71 I *C 0 37.845 *L 0

*CAP
1 *71:1 2.24211e-05
2 *71:2 2.24211e-05
3 *71:3 0.000550047
4 *71:4 0.000550047
5 *71:5 4.48421e-05
6 *71:6 4.48421e-05
7 *71:7 9.82226e-06
8 *71 9.82226e-06

*RES
1 *71:7 *71 0.0621444
2 *71:6 *71:7 1.4
3 *71:5 *71:6 0.248578
4 *71:4 *71:5 1.4
5 *71:3 *71:4 3.48009
6 *71:2 *71:3 1.4
7 *71:1 *71:2 0.124289
8 *931:D *71:1 1.4
*END

*D_NET *72 0.00298471

*CONN
*I *932:D I *C 14.935 39.005 *L 0.00289 *D SDFFRHQX4
*P *72 I *C 0 33.64 *L 0

*CAP
1 *72:1 2.24211e-05
2 *72:2 2.24211e-05
3 *72:3 0.000903648
4 *72:4 0.000903648
5 *72:5 0.000448421
6 *72:6 0.000448421
7 *72:7 0.000108045
8 *72:8 0.000117867
9 *72 9.82226e-06

*RES
1 *72:8 *72 0.0621444
2 *72:7 *72:8 0.683588
3 *72:6 *72:7 1.4
4 *72:5 *72:6 2.48578
5 *72:4 *72:5 1.4
6 *72:3 *72:4 5.71728
7 *72:2 *72:3 1.4
8 *72:1 *72:2 0.124289
9 *932:D *72:1 1.4
*END

*D_NET *73 0.00184276

*CONN
*I *916:D I *C 7.975 33.785 *L 0.00289 *D SDFFRHQX4
*P *73 I *C 0 29.435 *L 0

*CAP
1 *73:1 2.24211e-05
2 *73:2 2.24211e-05
3 *73:3 0.000412535
4 *73:4 0.000412535
5 *73:5 0.000358737
6 *73:6 0.000358737
7 *73:7 0.000127689
8 *73 0.000127689

*RES
1 *73:7 *73 0.807877
2 *73:6 *73:7 1.4
3 *73:5 *73:6 1.98862
4 *73:4 *73:5 1.4
5 *73:3 *73:4 2.61006
6 *73:2 *73:3 1.4
7 *73:1 *73:2 0.124289
8 *916:D *73:1 1.4
*END

*D_NET *74 0.00217869

*CONN
*P *74 O *C 0 117.74 *L 0
*I *885:Y O *C 5.075 104.255 *L 0 *D CLKINVX8

*CAP
1 *74 8.4557e-06
2 *74:1 1.69114e-05
3 *74:2 8.4557e-06
4 *74:3 0.000214606
5 *74:4 0.000214606
6 *74:5 0.000780279
7 *74:6 0.000780279
8 *74:7 7.75458e-05
9 *74:8 7.75458e-05

*RES
1 *74:9 *885:Y 1.4
2 *74:8 *74:9 1.4
3 *74:7 *74:8 0.497133
4 *74:6 *74:7 1.4
5 *74:5 *74:6 5.71728
6 *74:4 *74:5 1.4
7 *74:3 *74:4 1.61575
8 *74:2 *74:3 1.4
9 *74:1 *74:2 0.0621444
10 *74 *74:1 0.0621444
*END

*D_NET *75 0.00150894

*CONN
*P *75 O *C 4.11 117.74 *L 0
*I *891:Y O *C 5.075 107.445 *L 0 *D CLKINVX8

*CAP
1 *75 5.53994e-06
2 *75:1 1.39956e-05
3 *75:2 8.4557e-06
4 *75:3 9.90491e-05
5 *75:4 9.90491e-05
6 *75:5 0.000591899
7 *75:6 0.000591899
8 *75:7 4.95246e-05
9 *75:8 4.95246e-05

*RES
1 *75:9 *891:Y 1.4
2 *75:8 *75:9 1.4
3 *75:7 *75:8 0.372866
4 *75:6 *75:7 1.4
5 *75:5 *75:6 4.35011
6 *75:4 *75:5 1.4
7 *75:3 *75:4 0.745732
8 *75:2 *75:3 1.4
9 *75:1 *75:2 0.0621444
10 *75 *75:1 0.0407153
*END

*D_NET *76 0.00133802

*CONN
*P *76 O *C 8.22 117.74 *L 0
*I *883:Y O *C 9.425 107.445 *L 0 *D CLKINVX8

*CAP
1 *76 2.62418e-06
2 *76:1 0.000602979
3 *76:2 0.000600355
4 *76:3 6.60327e-05
5 *76:4 6.60327e-05

*RES
1 *76:5 *883:Y 1.4
2 *76:4 *76:5 1.4
3 *76:3 *76:4 0.497155
4 *76:2 *76:3 1.4
5 *76:1 *76:2 4.41225
6 *76 *76:1 0.0192862
*END

*D_NET *77 0.00971399

*CONN
*P *77 O *C 12.33 117.74 *L 0
*I *856:Q O *C 70.905 104.545 *L 0 *D SDFFRHQX8
*I *895:SI I *C 65.685 101.645 *L 0.00168 *D SDFFRX1

*CAP
1 *77 2.91576e-07
2 *77:1 8.74728e-06
3 *77:2 8.4557e-06
4 *77:3 0.00330898
5 *77:4 0.00330898
6 *77:5 0.000823109
7 *77:6 0.000823109
8 *77:7 0.000141955
9 *77:8 0.000408122
10 *77:9 0.000266167
11 *77:10 0.000226164
12 *77:11 1.8707e-05
13 *77:12 0.000226164
14 *77:13 1.8707e-05
15 *77:14 6.31671e-05
16 *77:16 6.31671e-05

*RES
1 *77:17 *895:SI 1.4
2 *77:16 *77:17 1.4
3 *77:14 *77:16 0.372866
4 *77:13 *856:Q 1.4
5 *77:12 *77:14 1.4
6 *77:11 *77:13 0.124289
7 *77:10 *77:12 1.36712
8 *77:9 *77:11 1.4
9 *77:8 *77:10 1.4
10 *77:8 *77:9 1.86425
11 *77:7 *77:8 0.994268
12 *77:6 *77:7 1.4
13 *77:5 *77:6 5.46871
14 *77:4 *77:5 1.4
15 *77:3 *77:4 22.247
16 *77:2 *77:3 1.4
17 *77:1 *77:2 0.0621444
18 *77 *77:1 0.00214291
*END

*D_NET *78 0.00179925

*CONN
*P *78 O *C 16.44 117.74 *L 0
*I *893:Y O *C 14.645 104.255 *L 0 *D CLKINVX8

*CAP
1 *78 3.20733e-06
2 *78:1 1.1663e-05
3 *78:2 8.4557e-06
4 *78:3 4.95246e-05
5 *78:4 4.95246e-05
6 *78:5 0.000780279
7 *78:6 0.000780279
8 *78:7 5.81594e-05
9 *78:8 5.81594e-05

*RES
1 *78:9 *893:Y 1.4
2 *78:8 *78:9 1.4
3 *78:7 *78:8 0.37285
4 *78:6 *78:7 1.4
5 *78:5 *78:6 5.71728
6 *78:4 *78:5 1.4
7 *78:3 *78:4 0.372866
8 *78:2 *78:3 1.4
9 *78:1 *78:2 0.0621444
10 *78 *78:1 0.023572
*END

*D_NET *79 0.0051035

*CONN
*P *79 O *C 61.65 117.74 *L 0
*I *857:Q O *C 76.125 99.325 *L 0 *D SDFFRHQX8
*I *889:SI I *C 77.285 96.715 *L 0.00271 *D SDFFRHQX8

*CAP
1 *79 1.61267e-06
2 *79:1 0.0011645
3 *79:2 0.00116289
4 *79:3 0.00105279
5 *79:4 0.00105279
6 *79:5 6.25591e-05
7 *79:6 0.000250236
8 *79:8 0.000187677
9 *79:9 8.42228e-05
10 *79:10 8.42228e-05

*RES
1 *79:11 *889:SI 1.4
2 *79:10 *79:11 1.4
3 *79:9 *79:10 0.497155
4 *79:8 *79:9 1.4
5 *79:6 *79:8 1.11855
6 *79:6 *857:Q 1.4
7 *79:5 *79:6 0.372849
8 *79:4 *79:5 1.4
9 *79:3 *79:4 6.21444
10 *79:2 *79:3 1.4
11 *79:1 *79:2 7.51939
12 *79 *79:1 0.0107145
*END

*D_NET *80 0.00864577

*CONN
*P *80 O *C 65.76 117.74 *L 0
*I *858:Q O *C 63.655 94.105 *L 0 *D SDFFRHQX8
*I *905:SI I *C 66.555 60.175 *L 0.00271 *D SDFFRHQX8

*CAP
1 *80 4.83802e-06
2 *80:1 1.41915e-05
3 *80:2 9.35351e-06
4 *80:3 5.32333e-05
5 *80:4 5.32333e-05
6 *80:5 0.00159145
7 *80:6 0.00159145
8 *80:7 0.000210557
9 *80:8 0.000126334
10 *80:9 8.42228e-05
11 *80:10 0.00245345
12 *80:12 0.00245345

*RES
1 *80:12 *905:SI 1.4
2 *80:11 *858:Q 1.4
3 *80:10 *80:12 14.5411
4 *80:9 *80:11 1.4
5 *80:8 *80:10 1.4
6 *80:7 *80:9 0.497155
7 *80:7 *80:8 0.745732
8 *80:6 *80:7 1.4
9 *80:5 *80:6 10.0672
10 *80:4 *80:5 1.4
11 *80:3 *80:4 0.372851
12 *80:2 *80:3 1.4
13 *80:1 *80:2 0.0621444
14 *80 *80:1 0.0321436
*END

*D_NET *81 0.00821993

*CONN
*P *81 O *C 86.31 117.74 *L 0
*I *861:Y O *C 58.435 88.595 *L 0 *D CLKINVX8

*CAP
1 *81 2.27747e-06
2 *81:1 0.00207553
3 *81:2 0.00207325
4 *81:3 0.00201358
5 *81:4 0.00201358
6 *81:5 2.0853e-05
7 *81:6 2.0853e-05

*RES
1 *81:6 *861:Y 1.4
2 *81:5 *81:6 0.124283
3 *81:4 *81:5 1.4
4 *81:3 *81:4 11.9317
5 *81:2 *81:3 1.4
6 *81:1 *81:2 12.6153
7 *81 *81:1 0.0150004
*END

*D_NET *82 0.00798339

*CONN
*P *82 O *C 90.42 117.74 *L 0
*I *863:Y O *C 61.335 91.785 *L 0 *D CLKINVX8

*CAP
1 *82 5.53099e-06
2 *82:1 1.49662e-05
3 *82:2 9.43522e-06
4 *82:3 3.81005e-05
5 *82:4 3.81005e-05
6 *82:5 0.00180323
7 *82:6 0.00180323
8 *82:7 0.0021354
9 *82:8 0.0021354

*RES
1 *82:9 *863:Y 1.4
2 *82:8 *82:9 1.4
3 *82:7 *82:8 12.6775
4 *82:6 *82:7 1.4
5 *82:5 *82:6 11.0617
6 *82:4 *82:5 1.4
7 *82:3 *82:4 0.248578
8 *82:2 *82:3 1.4
9 *82:1 *82:2 0.0621444
10 *82 *82:1 0.0364295
*END

*D_NET *83 0.00855311

*CONN
*P *83 O *C 94.53 117.74 *L 0
*I *859:Y O *C 63.655 88.595 *L 0 *D CLKINVX8

*CAP
1 *83 8.78451e-06
2 *83:1 0.00206032
3 *83:2 0.00205154
4 *83:3 0.00221623
5 *83:4 0.00221623

*RES
1 *83:5 *859:Y 1.4
2 *83:4 *83:5 1.4
3 *83:3 *83:4 13.1746
4 *83:2 *83:3 1.4
5 *83:1 *83:2 12.491
6 *83 *83:1 0.0578586
*END

*D_NET *84 0.00423474

*CONN
*P *84 O *C 98.64 117.74 *L 0
*I *878:Y O *C 76.705 107.445 *L 0 *D CLKINVX8

*CAP
1 *84 6.8324e-06
2 *84:1 0.000676733
3 *84:2 0.0006699
4 *84:3 0.00144064
5 *84:4 0.00144064

*RES
1 *84:5 *878:Y 1.4
2 *84:4 *84:5 1.4
3 *84:3 *84:4 9.44592
4 *84:2 *84:3 1.4
5 *84:1 *84:2 4.41225
6 *84 *84:1 0.0450011
*END

*D_NET *85 0.00620231

*CONN
*P *85 O *C 110.97 117.74 *L 0
*I *868:Q O *C 95.265 86.275 *L 0 *D SDFFRHQX8
*I *869:SI I *C 94.395 88.885 *L 0.00271 *D SDFFRHQX8

*CAP
1 *85 2.4915e-06
2 *85:1 0.00172717
3 *85:2 0.00172468
4 *85:3 0.00107279
5 *85:4 0.00113511
6 *85:5 0.000217156
7 *85:6 6.232e-05
8 *85:7 0.000217156
9 *85:8 2.17156e-05
10 *85:10 2.17156e-05

*RES
1 *85:10 *869:SI 1.4
2 *85:8 *85:10 0.124289
3 *85:7 *868:Q 1.4
4 *85:6 *85:8 1.4
5 *85:5 *85:7 1.24289
6 *85:4 *85:6 0.372866
7 *85:4 *85:5 1.4
8 *85:3 *85:4 6.71147
9 *85:2 *85:3 1.4
10 *85:1 *85:2 12.2423
11 *85 *85:1 0.0192858
*END

*D_NET *86 0.00894289

*CONN
*P *86 O *C 115.08 117.74 *L 0
*I *869:Q O *C 81.635 88.885 *L 0 *D SDFFRHQX8
*I *576:SI I *C 76.415 88.885 *L 0.00276 *D SDFFRHQX1

*CAP
1 *86 5.25983e-06
2 *86:1 1.3288e-05
3 *86:2 8.02816e-06
4 *86:3 3.20955e-05
5 *86:4 3.20955e-05
6 *86:5 0.00173543
7 *86:6 0.00173543
8 *86:7 0.0022723
9 *86:8 0.0022723
10 *86:9 2.17156e-05
11 *86:10 2.17156e-05
12 *86:12 0.000375755
13 *86:13 0.000375755
14 *86:14 2.0853e-05
15 *86:15 2.0853e-05

*RES
1 *86:15 *576:SI 1.4
2 *86:14 *86:15 0.124283
3 *86:13 *86:14 1.4
4 *86:12 *86:13 2.2372
5 *86:10 *86:12 1.4
6 *86:9 *869:Q 1.4
7 *86:9 *86:10 0.124289
8 *86:8 *86:9 1.4
9 *86:7 *86:8 14.0444
10 *86:6 *86:7 1.4
11 *86:5 *86:6 12.3044
12 *86:4 *86:5 1.4
13 *86:3 *86:4 0.248578
14 *86:2 *86:3 1.4
15 *86:1 *86:2 0.0621432
16 *86 *86:1 0.0407145
*END

*D_NET *87 0.0213678

*CONN
*I *664:A0 I *C 46.835 15.805 *L 0.00267 *D OAI211X1
*I *949:Q O *C 39.005 18.125 *L 0 *D SDFFRHQX4
*P *87 O *C 0 117.74 *L 0

*CAP
1 *87:2 1.98794e-05
2 *87:3 1.98794e-05
3 *87:4 0.00011865
4 *87:5 0.00011865
5 *87:6 0.000556623
6 *87:7 0.000556623
7 *87:8 3.955e-05
8 *87:9 3.955e-05
9 *87:10 0.00239464
10 *87:12 0.00239464
11 *87:13 0.00732345
12 *87:14 0.00732345
13 *87:15 0.000222861
14 *87:16 0.000231115
15 *87 8.25409e-06

*RES
1 *87:16 *87 0.0621444
2 *87:15 *87:16 1.6779
3 *87:14 *87:15 1.4
4 *87:13 *87:14 42.6303
5 *87:12 *87:13 1.4
6 *87:10 *87:12 15.0387
7 *87:9 *949:Q 1.4
8 *87:9 *87:10 1.4
9 *87:8 *87:9 0.248566
10 *87:7 *87:8 1.4
11 *87:6 *87:7 3.47993
12 *87:5 *87:6 1.4
13 *87:4 *87:5 0.745699
14 *87:3 *87:4 1.4
15 *87:2 *87:3 0.124283
16 *87:1 *87:2 1.4
17 *664:A0 *87:1 1.4
*END

*D_NET *88 0.01501

*CONN
*P *88 O *C 119.19 117.74 *L 0
*I *903:Q O *C 73.805 65.395 *L 0 *D SDFFRHQX8
*P *522 O *C 57.54 117.74 *L 0

*CAP
1 *88 8.02816e-06
2 *88:1 1.60563e-05
3 *88:2 8.02816e-06
4 *88:3 0.00279997
5 *88:4 0.00279997
6 *88:5 1.8707e-05
7 *88:6 0.00366562
8 *88:7 0.000993688
9 *88:8 0.00364691
10 *88:9 0.000993688
11 *88:11 2.80605e-05
12 *88:12 2.96732e-05
13 *522 1.61267e-06

*RES
1 *88:12 *522 0.0107145
2 *88:11 *88:12 0.186433
3 *88:9 *88:11 1.4
4 *88:8 *903:Q 1.4
5 *88:7 *88:9 6.95988
6 *88:6 *88:8 22.2469
7 *88:6 *88:7 1.4
8 *88:5 *88:6 0.124289
9 *88:4 *88:5 1.4
10 *88:3 *88:4 19.389
11 *88:2 *88:3 1.4
12 *88:1 *88:2 0.0621432
13 *88 *88:1 0.0621432
*END

*D_NET *89 0.00462659

*CONN
*I *898:SI I *C 23.635 101.935 *L 0.00271 *D SDFFRHQX8
*P *89 O *C 0 113.535 *L 0
*I *866:Q O *C 20.155 99.325 *L 0 *D SDFFRHQX8

*CAP
1 *89:2 0.000213251
2 *89:3 0.000252024
3 *89:4 0.000194587
4 *89:5 3.87729e-05
5 *89:6 0.000194587
6 *89:7 0.000716486
7 *89:8 1.93865e-05
8 *89:9 0.000716486
9 *89:10 1.93865e-05
10 *89:11 0.00113081
11 *89 0.00113081

*RES
1 *89:12 *866:Q 1.4
2 *89:11 *89 8.51378
3 *89:10 *89:12 1.4
4 *89:9 *89:11 1.4
5 *89:8 *89:10 0.124283
6 *89:7 *89:9 4.9715
7 *89:6 *89:8 1.4
8 *89:5 *89:7 1.4
9 *89:4 *89:6 1.11855
10 *89:3 *89:5 0.248566
11 *89:3 *89:4 1.4
12 *89:2 *89:3 1.36712
13 *89:1 *89:2 1.4
14 *898:SI *89:1 1.4
*END

*D_NET *90 0.0026242

*CONN
*P *90 O *C 0 109.33 *L 0
*I *866:SI I *C 7.395 99.325 *L 0.00271 *D SDFFRHQX8
*I *873:Q O *C 6.235 96.715 *L 0 *D SDFFRHQX8

*CAP
1 *90 8.25409e-06
2 *90:1 0.00036318
3 *90:2 0.000354926
4 *90:3 0.000657402
5 *90:4 0.000657402
6 *90:5 1.93865e-05
7 *90:6 7.75458e-05
8 *90:7 5.81594e-05
9 *90:8 0.000194587
10 *90:10 0.000194587
11 *90:12 1.93865e-05
12 *90:13 1.93865e-05

*RES
1 *90:14 *873:Q 1.4
2 *90:13 *90:14 1.4
3 *90:12 *90:13 0.124283
4 *90:10 *90:12 1.4
5 *90:9 *866:SI 1.4
6 *90:8 *90:10 1.11855
7 *90:7 *90:9 1.4
8 *90:6 *90:8 1.4
9 *90:6 *90:7 0.37285
10 *90:5 *90:6 0.124283
11 *90:4 *90:5 1.4
12 *90:3 *90:4 4.22572
13 *90:2 *90:3 1.4
14 *90:1 *90:2 2.67221
15 *90 *90:1 0.0621444
*END

*D_NET *91 0.00396641

*CONN
*I *873:SI I *C 18.995 96.715 *L 0.00271 *D SDFFRHQX8
*I *874:Q O *C 11.745 94.105 *L 0 *D SDFFRHQX8
*P *91 O *C 0 105.125 *L 0

*CAP
1 *91:2 0.000484661
2 *91:3 0.000620366
3 *91:4 0.000194587
4 *91:5 0.000135705
5 *91:6 0.000194587
6 *91:7 0.000615229
7 *91:9 0.000615229
8 *91:10 0.000553024
9 *91 0.000553024

*RES
1 *91:10 *91 4.16367
2 *91:9 *91:10 1.4
3 *91:7 *91:9 3.60423
4 *91:6 *874:Q 1.4
5 *91:5 *91:7 1.4
6 *91:4 *91:6 1.11855
7 *91:3 *91:5 0.869982
8 *91:3 *91:4 1.4
9 *91:2 *91:3 3.10708
10 *91:1 *91:2 1.4
11 *873:SI *91:1 1.4
*END

*D_NET *92 0.00502089

*CONN
*P *92 O *C 0 100.92 *L 0
*I *874:SI I *C 24.505 94.105 *L 0.00271 *D SDFFRHQX8
*I *875:Q O *C 19.865 91.495 *L 0 *D SDFFRHQX8

*CAP
1 *92 9.69323e-06
2 *92:1 1.93865e-05
3 *92:2 9.69323e-06
4 *92:3 6.48624e-05
5 *92:4 6.48624e-05
6 *92:5 0.00133767
7 *92:6 0.00133767
8 *92:7 0.00054052
9 *92:8 0.00054052
10 *92:9 0.000310183
11 *92:10 0.000290797
12 *92:11 1.93865e-05
13 *92:12 2.16208e-05
14 *92:13 0.000216208
15 *92:14 2.16208e-05
16 *92:15 0.000216208

*RES
1 *92:15 *875:Q 1.4
2 *92:14 *874:SI 1.4
3 *92:13 *92:15 1.24283
4 *92:12 *92:14 0.124283
5 *92:11 *92:13 1.4
6 *92:10 *92:12 1.4
7 *92:9 *92:11 0.124283
8 *92:9 *92:10 1.86425
9 *92:8 *92:9 1.4
10 *92:7 *92:8 3.10708
11 *92:6 *92:7 1.4
12 *92:5 *92:6 8.57554
13 *92:4 *92:5 1.4
14 *92:3 *92:4 0.37285
15 *92:2 *92:3 1.4
16 *92:1 *92:2 0.0621416
17 *92 *92:1 0.0621416
*END

*D_NET *93 0.00254541

*CONN
*I *875:SI I *C 7.105 91.495 *L 0.00271 *D SDFFRHQX8
*I *867:Q O *C 5.945 86.275 *L 0 *D SDFFRHQX8
*P *93 O *C 0 96.715 *L 0

*CAP
1 *93:2 5.81594e-05
2 *93:3 5.81594e-05
3 *93:4 0.000432416
4 *93:5 4.32416e-05
5 *93:6 0.000389174
6 *93:7 0.000310183
7 *93:8 1.93865e-05
8 *93:9 0.000310183
9 *93:10 1.93865e-05
10 *93:11 0.000345933
11 *93:13 0.000345933
12 *93:15 0.000106625
13 *93 0.000106625

*RES
1 *93:15 *93 0.683558
2 *93:13 *93:15 1.4
3 *93:12 *867:Q 1.4
4 *93:11 *93:13 1.98853
5 *93:10 *93:12 1.4
6 *93:9 *93:11 1.4
7 *93:8 *93:10 0.124283
8 *93:7 *93:9 1.98853
9 *93:6 *93:8 1.4
10 *93:5 *93:7 1.4
11 *93:4 *93:6 2.2371
12 *93:4 *93:5 0.248566
13 *93:3 *93:4 1.4
14 *93:2 *93:3 0.37285
15 *93:1 *93:2 1.4
16 *875:SI *93:1 1.4
*END

*D_NET *94 0.00389503

*CONN
*P *94 O *C 0 92.51 *L 0
*I *867:SI I *C 18.705 86.275 *L 0.00271 *D SDFFRHQX8
*I *865:Q O *C 5.945 83.665 *L 0 *D SDFFRHQX8

*CAP
1 *94 9.69323e-06
2 *94:1 0.000445888
3 *94:2 0.000436195
4 *94:3 0.000454037
5 *94:4 0.000454037
6 *94:5 0.000833617
7 *94:6 0.000814231
8 *94:7 1.93865e-05
9 *94:9 0.000194587
10 *94:11 0.000194587
11 *94:12 1.93865e-05
12 *94:13 1.93865e-05

*RES
1 *94:14 *865:Q 1.4
2 *94:13 *94:14 1.4
3 *94:12 *94:13 0.124283
4 *94:11 *94:12 1.4
5 *94:9 *94:11 1.11855
6 *94:8 *867:SI 1.4
7 *94:7 *94:9 1.4
8 *94:6 *94:8 1.4
9 *94:5 *94:7 0.124283
10 *94:5 *94:6 5.21989
11 *94:4 *94:5 1.4
12 *94:3 *94:4 2.60995
13 *94:2 *94:3 1.4
14 *94:1 *94:2 2.79637
15 *94 *94:1 0.0621416
*END

*D_NET *95 0.00378469

*CONN
*I *865:SI I *C 18.705 83.665 *L 0.00271 *D SDFFRHQX8
*P *95 O *C 0 88.305 *L 0
*I *871:Q O *C 19.575 81.055 *L 0 *D SDFFRHQX8

*CAP
1 *95:1 4.32416e-05
2 *95:2 4.32416e-05
3 *95:3 0.00116319
4 *95:4 1.93865e-05
5 *95:5 0.0011438
6 *95:6 0.000237829
7 *95:7 0.000302691
8 *95:8 0.000237829
9 *95:9 0.000302691
10 *95:10 3.87729e-05
11 *95:11 0.000106625
12 *95:12 3.87729e-05
13 *95 0.000106625

*RES
1 *95:14 *871:Q 1.4
2 *95:12 *95:14 1.4
3 *95:11 *95 0.683558
4 *95:10 *95:12 0.248566
5 *95:9 *95:11 1.4
6 *95:8 *95:10 1.4
7 *95:7 *95:9 1.73996
8 *95:6 *95:8 1.36712
9 *95:5 *95:7 1.4
10 *95:4 *95:6 1.4
11 *95:3 *95:5 7.33271
12 *95:3 *95:4 0.124283
13 *95:2 *95:3 1.4
14 *95:1 *95:2 0.248566
15 *865:SI *95:1 1.4
*END

*D_NET *96 0.00289354

*CONN
*P *96 O *C 0 84.1 *L 0
*I *871:SI I *C 6.815 81.055 *L 0.00271 *D SDFFRHQX8
*I *872:Q O *C 12.325 75.835 *L 0 *D SDFFRHQX8

*CAP
1 *96 9.69323e-06
2 *96:1 0.000135705
3 *96:2 0.000126012
4 *96:3 0.000216208
5 *96:4 0.000216208
6 *96:5 0.00032957
7 *96:6 0.000697912
8 *96:7 0.000368343
9 *96:9 0.000396945
10 *96:11 0.000396945

*RES
1 *96:11 *872:Q 1.4
2 *96:9 *96:11 2.23714
3 *96:8 *871:SI 1.4
4 *96:7 *96:9 1.4
5 *96:6 *96:8 1.4
6 *96:6 *96:7 2.36138
7 *96:5 *96:6 2.11281
8 *96:4 *96:5 1.4
9 *96:3 *96:4 1.24283
10 *96:2 *96:3 1.4
11 *96:1 *96:2 0.807841
12 *96 *96:1 0.0621416
*END

*D_NET *97 0.00292368

*CONN
*P *97 O *C 49.32 117.74 *L 0
*I *906:Q O *C 58.435 107.155 *L 0 *D SDFFRHQX8
*I *856:SI I *C 58.145 104.545 *L 0.00271 *D SDFFRHQX8

*CAP
1 *97 8.24854e-06
2 *97:1 0.000649325
3 *97:2 0.000641076
4 *97:3 0.000570286
5 *97:4 0.000570286
6 *97:5 5.61211e-05
7 *97:6 0.000224484
8 *97:8 0.000168363
9 *97:9 1.77444e-05
10 *97:10 1.77444e-05

*RES
1 *97:11 *856:SI 1.4
2 *97:10 *97:11 1.4
3 *97:9 *97:10 0.124284
4 *97:8 *97:9 1.4
5 *97:6 *97:8 1.1186
6 *97:6 *906:Q 1.4
7 *97:5 *97:6 0.372866
8 *97:4 *97:5 1.4
9 *97:3 *97:4 3.85279
10 *97:2 *97:3 1.4
11 *97:1 *97:2 4.16365
12 *97 *97:1 0.0535725
*END

*D_NET *98 0.0028233

*CONN
*P *98 O *C 45.21 117.74 *L 0
*I *906:SI I *C 45.675 107.155 *L 0.00271 *D SDFFRHQX8
*I *907:Q O *C 52.635 104.545 *L 0 *D SDFFRHQX8

*CAP
1 *98 7.58866e-06
2 *98:1 1.7157e-05
3 *98:2 9.56831e-06
4 *98:3 1.98716e-05
5 *98:4 1.98716e-05
6 *98:5 0.000688918
7 *98:6 0.000861148
8 *98:7 1.98716e-05
9 *98:8 0.00017223
10 *98:9 1.98716e-05
11 *98:10 0.0004936
12 *98:12 0.0004936

*RES
1 *98:14 *907:Q 1.4
2 *98:12 *98:14 1.4
3 *98:11 *906:SI 1.4
4 *98:10 *98:12 3.10708
5 *98:9 *98:11 1.4
6 *98:8 *98:10 1.4
7 *98:7 *98:9 0.124283
8 *98:6 *98:8 1.11859
9 *98:6 *98:7 1.4
10 *98:5 *98:6 4.47437
11 *98:4 *98:5 1.4
12 *98:3 *98:4 0.124283
13 *98:2 *98:3 1.4
14 *98:1 *98:2 0.0621441
15 *98 *98:1 0.0492867
*END

*D_NET *99 0.00234616

*CONN
*I *907:SI I *C 39.875 104.545 *L 0.00271 *D SDFFRHQX8
*I *899:Q O *C 41.905 109.765 *L 0 *D SDFFRHQX8
*P *99 O *C 41.1 117.74 *L 0

*CAP
1 *99:2 0.000178845
2 *99:3 0.000178845
3 *99:4 0.000248776
4 *99:5 0.000248776
5 *99:6 1.98716e-05
6 *99:7 1.98716e-05
7 *99:8 9.56831e-05
8 *99:9 0.000612372
9 *99:10 0.000516689
10 *99:11 1.98716e-05
11 *99:12 7.94865e-05
12 *99:13 1.98716e-05
13 *99:14 7.94865e-05
14 *99:16 9.56831e-06
15 *99:18 1.38575e-05
16 *99 4.28924e-06

*RES
1 *99:18 *99 0.0278577
2 *99:16 *99:18 0.0621441
3 *99:15 *899:Q 1.4
4 *99:14 *99:16 1.4
5 *99:13 *99:15 1.4
6 *99:12 *99:14 0.497133
7 *99:11 *99:13 0.124283
8 *99:10 *99:12 1.4
9 *99:9 *99:11 1.4
10 *99:9 *99:10 3.35578
11 *99:8 *99:9 0.621441
12 *99:7 *99:8 1.4
13 *99:6 *99:7 0.124283
14 *99:5 *99:6 1.4
15 *99:4 *99:5 1.61575
16 *99:3 *99:4 1.4
17 *99:2 *99:3 1.11855
18 *99:1 *99:2 1.4
19 *907:SI *99:1 1.4
*END

*D_NET *100 0.00458553

*CONN
*P *100 O *C 36.99 117.74 *L 0
*I *899:SI I *C 54.665 109.765 *L 0.00271 *D SDFFRHQX8
*I *900:Q O *C 52.345 101.935 *L 0 *D SDFFRHQX8

*CAP
1 *100 9.89825e-07
2 *100:1 0.000469837
3 *100:2 0.000468847
4 *100:3 0.00103333
5 *100:4 0.00103333
6 *100:5 5.74098e-05
7 *100:6 0.00060678
8 *100:7 0.000160763
9 *100:8 0.00054937
10 *100:9 0.000160763
11 *100:10 2.20616e-05
12 *100:12 2.20616e-05

*RES
1 *100:14 *900:Q 1.4
2 *100:12 *100:14 1.4
3 *100:11 *899:SI 1.4
4 *100:10 *100:12 0.124286
5 *100:9 *100:11 1.4
6 *100:8 *100:10 1.4
7 *100:7 *100:9 1.11855
8 *100:6 *100:8 3.35579
9 *100:6 *100:7 1.4
10 *100:5 *100:6 0.372865
11 *100:4 *100:5 1.4
12 *100:3 *100:4 6.46272
13 *100:2 *100:3 1.4
14 *100:1 *100:2 3.04506
15 *100 *100:1 0.0064287
*END

*D_NET *101 0.00342619

*CONN
*P *101 O *C 32.88 117.74 *L 0
*I *900:SI I *C 39.585 101.935 *L 0.00271 *D SDFFRHQX8
*I *902:Q O *C 41.905 107.155 *L 0 *D SDFFRHQX8

*CAP
1 *101 2.30959e-06
2 *101:1 0.000643386
3 *101:2 0.000641076
4 *101:3 0.000457048
5 *101:4 0.000457048
6 *101:5 3.82732e-05
7 *101:6 0.000434551
8 *101:7 0.000158973
9 *101:8 0.000396278
10 *101:9 0.000158973
11 *101:11 1.91366e-05
12 *101:12 1.91366e-05

*RES
1 *101:12 *902:Q 1.4
2 *101:11 *101:12 0.124288
3 *101:9 *101:11 1.4
4 *101:8 *900:SI 1.4
5 *101:7 *101:9 0.994265
6 *101:6 *101:8 2.36148
7 *101:6 *101:7 1.4
8 *101:5 *101:6 0.248576
9 *101:4 *101:5 1.4
10 *101:3 *101:4 2.85851
11 *101:2 *101:3 1.4
12 *101:1 *101:2 4.16365
13 *101 *101:1 0.0150003
*END

*D_NET *102 0.00303766

*CONN
*I *902:SI I *C 29.145 107.155 *L 0.00271 *D SDFFRHQX8
*I *901:Q O *C 39.875 112.375 *L 0 *D SDFFRHQX8
*P *102 O *C 28.77 117.74 *L 0

*CAP
1 *102:2 5.96149e-05
2 *102:3 5.96149e-05
3 *102:4 0.000344459
4 *102:5 0.000344459
5 *102:6 0.000755122
6 *102:7 0.000675636
7 *102:8 7.94865e-05
8 *102:10 0.000354027
9 *102:12 0.000359636
10 *102 5.60901e-06

*RES
1 *102:12 *102 0.0364293
2 *102:10 *102:12 2.29933
3 *102:9 *901:Q 1.4
4 *102:8 *102:10 1.4
5 *102:7 *102:9 1.4
6 *102:6 *102:8 0.497133
7 *102:6 *102:7 4.22563
8 *102:5 *102:6 1.4
9 *102:4 *102:5 2.23719
10 *102:3 *102:4 1.4
11 *102:2 *102:3 0.372849
12 *102:1 *102:2 1.4
13 *902:SI *102:1 1.4
*END

*D_NET *103 0.00352396

*CONN
*P *103 O *C 24.66 117.74 *L 0
*I *904:SI I *C 34.945 104.545 *L 0.00271 *D SDFFRHQX8
*I *898:Q O *C 36.395 101.935 *L 0 *D SDFFRHQX8

*CAP
1 *103 7.87255e-06
2 *103:1 0.000777341
3 *103:2 0.000769469
4 *103:3 0.000680372
5 *103:4 0.00077973
6 *103:5 9.93582e-05
7 *103:7 0.000204911
8 *103:9 0.000204911

*RES
1 *103:9 *898:Q 1.4
2 *103:7 *103:9 1.1186
3 *103:6 *904:SI 1.4
4 *103:5 *103:7 1.4
5 *103:4 *103:6 1.4
6 *103:4 *103:5 0.621416
7 *103:3 *103:4 4.34994
8 *103:2 *103:3 1.4
9 *103:1 *103:2 5.65514
10 *103 *103:1 0.0578586
*END

*D_NET *104 0.0023341

*CONN
*P *104 O *C 20.55 117.74 *L 0
*I *901:SI I *C 27.115 112.375 *L 0.00271 *D SDFFRHQX8
*I *904:Q O *C 22.185 104.545 *L 0 *D SDFFRHQX8

*CAP
1 *104 6.12309e-06
2 *104:1 0.000318984
3 *104:2 0.000312861
4 *104:3 9.90491e-05
5 *104:4 0.00039146
6 *104:5 0.000292411
7 *104:6 0.000456608
8 *104:8 0.000456608

*RES
1 *104:8 *904:Q 1.4
2 *104:7 *901:SI 1.4
3 *104:6 *104:8 3.3558
4 *104:5 *104:7 1.4
5 *104:4 *104:6 1.4
6 *104:4 *104:5 2.11289
7 *104:3 *104:4 0.745732
8 *104:2 *104:3 1.4
9 *104:1 *104:2 2.29934
10 *104 *104:1 0.0450011
*END

*D_NET *105 0.000961066

*CONN
*P *105 O *C 0 79.895 *L 0
*I *894:Y O *C 5.075 78.155 *L 0 *D CLKINVX8

*CAP
1 *105 0.000106625
2 *105:1 0.000106625
3 *105:2 0.000130182
4 *105:3 0.000130182
5 *105:4 0.000243726
6 *105:5 0.000243726

*RES
1 *105:6 *894:Y 1.4
2 *105:5 *105:6 1.4
3 *105:4 *105:5 1.49146
4 *105:3 *105:4 1.4
5 *105:2 *105:3 0.745702
6 *105:1 *105:2 1.4
7 *105 *105:1 0.683558
*END

*D_NET *106 0.00345059

*CONN
*P *106 O *C 0 75.69 *L 0
*I *884:Y O *C 5.075 93.815 *L 0 *D CLKINVX8

*CAP
1 *106 1.01552e-05
2 *106:1 0.000121863
3 *106:2 0.000111708
4 *106:3 0.0013708
5 *106:4 0.0013708
6 *106:5 0.000232637
7 *106:6 0.000232637

*RES
1 *106:7 *884:Y 1.4
2 *106:6 *106:7 1.4
3 *106:5 *106:6 1.4914
4 *106:4 *106:5 1.4
5 *106:3 *106:4 7.82989
6 *106:2 *106:3 1.4
7 *106:1 *106:2 0.683588
8 *106 *106:1 0.0621444
*END

*D_NET *107 0.00320596

*CONN
*P *107 O *C 0 71.485 *L 0
*I *879:Y O *C 18.705 67.715 *L 0 *D CLKINVX8

*CAP
1 *107 0.000111708
2 *107:1 0.000111708
3 *107:2 0.000292956
4 *107:3 0.000292956
5 *107:4 0.00119832
6 *107:5 0.00119832

*RES
1 *107:6 *879:Y 1.4
2 *107:5 *107:6 1.4
3 *107:4 *107:5 7.33304
4 *107:3 *107:4 1.4
5 *107:2 *107:3 1.61575
6 *107:1 *107:2 1.4
7 *107 *107:1 0.683588
*END

*D_NET *108 0.000956528

*CONN
*P *108 O *C 0 67.28 *L 0
*I *862:Y O *C 5.075 65.685 *L 0 *D CLKINVX8

*CAP
1 *108 1.01552e-05
2 *108:1 0.000142173
3 *108:2 0.000132018
4 *108:3 0.000112675
5 *108:4 0.000112675
6 *108:5 0.000223415
7 *108:6 0.000223415

*RES
1 *108:7 *862:Y 1.4
2 *108:6 *108:7 1.4
3 *108:5 *108:6 1.36718
4 *108:4 *108:5 1.4
5 *108:3 *108:4 0.621442
6 *108:2 *108:3 1.4
7 *108:1 *108:2 0.807877
8 *108 *108:1 0.0621444
*END

*D_NET *109 0.000801007

*CONN
*P *109 O *C 0 63.075 *L 0
*I *864:Y O *C 5.075 62.495 *L 0 *D CLKINVX8

*CAP
1 *109 0.000355433
2 *109:1 0.000355433
3 *109:2 4.50701e-05
4 *109:3 4.50701e-05

*RES
1 *109:3 *864:Y 1.4
2 *109:2 *109:3 0.248577
3 *109:1 *109:2 1.4
4 *109 *109:1 2.17505
*END

*D_NET *110 0.0010016

*CONN
*P *110 O *C 0 58.87 *L 0
*I *860:Y O *C 5.075 60.465 *L 0 *D CLKINVX8

*CAP
1 *110 1.01552e-05
2 *110:1 2.03105e-05
3 *110:2 1.01552e-05
4 *110:3 6.76051e-05
5 *110:4 6.76051e-05
6 *110:5 0.000345278
7 *110:6 0.000345278
8 *110:7 6.76051e-05
9 *110:8 6.76051e-05

*RES
1 *110:8 *860:Y 1.4
2 *110:7 *110:8 0.372865
3 *110:6 *110:7 1.4
4 *110:5 *110:6 2.11291
5 *110:4 *110:5 1.4
6 *110:3 *110:4 0.372865
7 *110:2 *110:3 1.4
8 *110:1 *110:2 0.0621444
9 *110 *110:1 0.0621444
*END

*D_NET *111 0.000841628

*CONN
*P *111 O *C 0 54.665 *L 0
*I *890:Y O *C 5.365 55.245 *L 0 *D CLKINVX8

*CAP
1 *111 1.01552e-05
2 *111:1 1.01552e-05
3 *111:2 2.2535e-05
4 *111:3 2.2535e-05
5 *111:4 0.000365589
6 *111:5 0.000365589
7 *111:6 2.2535e-05
8 *111:7 2.2535e-05

*RES
1 *111:7 *890:Y 1.4
2 *111:6 *111:7 0.124288
3 *111:5 *111:6 1.4
4 *111:4 *111:5 2.2372
5 *111:3 *111:4 1.4
6 *111:2 *111:3 0.124288
7 *111:1 *111:2 1.4
8 *111 *111:1 0.0621444
*END

*D_NET *112 0.000976255

*CONN
*P *112 O *C 0 50.46 *L 0
*I *892:Y O *C 5.075 52.055 *L 0 *D CLKINVX8

*CAP
1 *112 9.82226e-06
2 *112:1 0.000117867
3 *112:2 0.000108045
4 *112:3 0.000134526
5 *112:4 0.000134526
6 *112:5 0.000235734
7 *112:6 0.000235734

*RES
1 *112:7 *892:Y 1.4
2 *112:6 *112:7 1.4
3 *112:5 *112:6 1.49146
4 *112:4 *112:5 1.4
5 *112:3 *112:4 0.745733
6 *112:2 *112:3 1.4
7 *112:1 *112:2 0.683588
8 *112 *112:1 0.0621444
*END

*D_NET *113 0.00943571

*CONN
*P *113 O *C 53.43 117.74 *L 0
*I *903:SI I *C 61.045 65.395 *L 0.00271 *D SDFFRHQX8
*I *905:Q O *C 53.795 60.175 *L 0 *D SDFFRHQX8

*CAP
1 *113 4.83802e-06
2 *113:1 3.28985e-05
3 *113:2 2.80605e-05
4 *113:3 5.32333e-05
5 *113:4 5.32333e-05
6 *113:5 0.00362584
7 *113:6 0.00362584
8 *113:7 8.06145e-05
9 *113:8 0.000463533
10 *113:9 0.000382919
11 *113:10 0.000400357
12 *113:11 2.10714e-05
13 *113:12 0.000400357
14 *113:13 2.10714e-05
15 *113:14 0.000120922
16 *113:16 0.000120922

*RES
1 *113:17 *905:Q 1.4
2 *113:16 *113:17 1.4
3 *113:14 *113:16 0.745699
4 *113:13 *903:SI 1.4
5 *113:12 *113:14 1.4
6 *113:11 *113:13 0.124283
7 *113:10 *113:12 2.36138
8 *113:9 *113:11 1.4
9 *113:8 *113:10 1.4
10 *113:8 *113:9 2.36138
11 *113:7 *113:8 0.497133
12 *113:6 *113:7 1.4
13 *113:5 *113:6 22.1226
14 *113:4 *113:5 1.4
15 *113:3 *113:4 0.372851
16 *113:2 *113:3 1.4
17 *113:1 *113:2 0.186433
18 *113 *113:1 0.0321436
*END

*D_NET *114 0.00454743

*CONN
*P *114 O *C 106.86 117.74 *L 0
*I *880:SI I *C 84.535 107.155 *L 0.00271 *D SDFFRHQX8
*I *881:Q O *C 83.375 104.545 *L 0 *D SDFFRHQX8

*CAP
1 *114 2.76833e-07
2 *114:1 0.000586333
3 *114:2 0.000586056
4 *114:3 0.00144135
5 *114:4 0.0014985
6 *114:6 5.71507e-05
7 *114:8 0.000169834
8 *114:9 0.000169834
9 *114:10 1.90502e-05
10 *114:11 1.90502e-05

*RES
1 *114:12 *881:Q 1.4
2 *114:11 *114:12 1.4
3 *114:10 *114:11 0.124289
4 *114:9 *114:10 1.4
5 *114:8 *114:9 1.1186
6 *114:6 *114:8 1.4
7 *114:5 *880:SI 1.4
8 *114:4 *114:6 0.372866
9 *114:4 *114:5 1.4
10 *114:3 *114:4 9.57023
11 *114:2 *114:3 1.4
12 *114:1 *114:2 4.53646
13 *114 *114:1 0.00214287
*END

*D_NET *115 0.00395055

*CONN
*P *115 O *C 102.75 117.74 *L 0
*I *880:Q O *C 97.295 107.155 *L 0 *D SDFFRHQX8
*I *888:SI I *C 92.365 99.325 *L 0.00271 *D SDFFRHQX8

*CAP
1 *115 3.57887e-06
2 *115:1 1.30141e-05
3 *115:2 9.43522e-06
4 *115:3 9.52512e-05
5 *115:4 9.52512e-05
6 *115:5 0.000698206
7 *115:6 0.000698206
8 *115:7 0.000266703
9 *115:8 0.000381005
10 *115:9 1.88704e-05
11 *115:10 0.000114301
12 *115:11 1.88704e-05
13 *115:12 0.000540421
14 *115:14 0.000540421
15 *115:15 0.000228507
16 *115:16 0.000228507

*RES
1 *115:17 *888:SI 1.4
2 *115:16 *115:17 1.4
3 *115:15 *115:16 1.36718
4 *115:14 *115:15 1.4
5 *115:12 *115:14 3.23151
6 *115:11 *880:Q 1.4
7 *115:10 *115:12 1.4
8 *115:9 *115:11 0.124289
9 *115:8 *115:10 0.745732
10 *115:8 *115:9 1.4
11 *115:7 *115:8 1.74004
12 *115:6 *115:7 1.4
13 *115:5 *115:6 4.59868
14 *115:4 *115:5 1.4
15 *115:3 *115:4 0.621444
16 *115:2 *115:3 1.4
17 *115:1 *115:2 0.0621444
18 *115 *115:1 0.023572
*END

*D_NET *116 0.0149188

*CONN
*I *955:SI I *C 87.725 23.345 *L 0.00268 *D SDFFRHQX4
*I *887:Q O *C 81.055 91.495 *L 0 *D SDFFRHQX8
*P *116 O *C 82.2 117.74 *L 0

*CAP
1 *116:1 1.99539e-05
2 *116:2 1.99539e-05
3 *116:3 0.000379639
4 *116:4 0.000379639
5 *116:5 0.00501373
6 *116:6 0.00501373
7 *116:7 2.07733e-05
8 *116:8 2.07733e-05
9 *116:9 0.000108578
10 *116:10 0.00193352
11 *116:11 0.00182495
12 *116:12 6.232e-05
13 *116:13 1.90502e-05
14 *116:14 6.232e-05
15 *116:15 1.90502e-05
16 *116:17 9.43522e-06
17 *116:19 1.04113e-05
18 *116 9.76057e-07

*RES
1 *116:19 *116 0.00642873
2 *116:17 *116:19 0.0621444
3 *116:16 *887:Q 1.4
4 *116:15 *116:17 1.4
5 *116:14 *116:16 1.4
6 *116:13 *116:15 0.124289
7 *116:12 *116:14 0.372866
8 *116:11 *116:13 1.4
9 *116:10 *116:12 1.4
10 *116:10 *116:11 11.186
11 *116:9 *116:10 0.621444
12 *116:8 *116:9 1.4
13 *116:7 *116:8 0.124289
14 *116:6 *116:7 1.4
15 *116:5 *116:6 28.4615
16 *116:4 *116:5 1.4
17 *116:3 *116:4 2.36138
18 *116:2 *116:3 1.4
19 *116:1 *116:2 0.124283
20 *955:SI *116:1 1.4
*END

*D_NET *117 0.00612004

*CONN
*P *117 O *C 78.09 117.74 *L 0
*I *886:Q O *C 94.975 94.105 *L 0 *D SDFFRHQX8
*I *887:SI I *C 93.815 91.495 *L 0.00271 *D SDFFRHQX8

*CAP
1 *117 4.19295e-06
2 *117:1 1.35465e-05
3 *117:2 9.35351e-06
4 *117:3 3.74476e-05
5 *117:4 3.74476e-05
6 *117:5 0.00156436
7 *117:6 0.00156436
8 *117:7 0.00110099
9 *117:8 0.00110099
10 *117:9 6.51467e-05
11 *117:10 0.000260587
12 *117:11 6.232e-05
13 *117:12 0.00019544
14 *117:13 6.232e-05
15 *117:14 2.07733e-05
16 *117:16 2.07733e-05

*RES
1 *117:18 *887:SI 1.4
2 *117:16 *117:18 1.4
3 *117:15 *886:Q 1.4
4 *117:14 *117:16 0.124289
5 *117:13 *117:15 1.4
6 *117:12 *117:14 1.4
7 *117:11 *117:13 0.372866
8 *117:10 *117:12 1.1186
9 *117:10 *117:11 1.4
10 *117:9 *117:10 0.372866
11 *117:8 *117:9 1.4
12 *117:7 *117:8 6.5873
13 *117:6 *117:7 1.4
14 *117:5 *117:6 9.69452
15 *117:4 *117:5 1.4
16 *117:3 *117:4 0.248575
17 *117:2 *117:3 1.4
18 *117:1 *117:2 0.0621444
19 *117 *117:1 0.0278578
*END

*D_NET *118 0.00446415

*CONN
*P *118 O *C 73.98 117.74 *L 0
*I *888:Q O *C 79.605 99.325 *L 0 *D SDFFRHQX8
*I *886:SI I *C 82.215 94.105 *L 0.00271 *D SDFFRHQX8

*CAP
1 *118 7.4183e-06
2 *118:1 0.00119116
3 *118:2 0.00118374
4 *118:3 0.000210557
5 *118:4 0.000210557
6 *118:5 2.0853e-05
7 *118:6 2.0853e-05
8 *118:7 0.000188231
9 *118:8 0.000375191
10 *118:9 0.00018696
11 *118:10 2.17156e-05
12 *118:11 0.000412596
13 *118:12 2.17156e-05
14 *118:13 0.000412596

*RES
1 *118:13 *886:SI 1.4
2 *118:12 *888:Q 1.4
3 *118:11 *118:13 2.36149
4 *118:10 *118:12 0.124289
5 *118:9 *118:11 1.4
6 *118:8 *118:10 1.4
7 *118:8 *118:9 1.1186
8 *118:7 *118:8 1.1186
9 *118:6 *118:7 1.4
10 *118:5 *118:6 0.124283
11 *118:4 *118:5 1.4
12 *118:3 *118:4 1.24289
13 *118:2 *118:3 1.4
14 *118:1 *118:2 7.64367
15 *118 *118:1 0.0492869
*END

*D_NET *119 0.00507023

*CONN
*I *858:SI I *C 76.415 94.105 *L 0.00271 *D SDFFRHQX8
*P *119 O *C 69.87 117.74 *L 0
*I *889:Q O *C 64.525 96.715 *L 0 *D SDFFRHQX8

*CAP
1 *119:2 2.10557e-05
2 *119:3 2.10557e-05
3 *119:4 0.000104265
4 *119:5 0.000104265
5 *119:6 0.000505337
6 *119:7 0.000505337
7 *119:8 0.000104265
8 *119:9 0.00149654
9 *119:10 0.00140034
10 *119:11 0.000379003
11 *119 8.06337e-06
12 *119:13 0.000379003
13 *119:14 2.0853e-05
14 *119:15 2.0853e-05

*RES
1 *119:15 *889:Q 1.4
2 *119:14 *119:15 0.124283
3 *119:13 *119:14 1.4
4 *119:11 *119:13 2.2372
5 *119:10 *119 0.0535727
6 *119:9 *119:11 1.4
7 *119:9 *119:10 8.8865
8 *119:8 *119:9 0.621415
9 *119:7 *119:8 1.4
10 *119:6 *119:7 2.98293
11 *119:5 *119:6 1.4
12 *119:4 *119:5 0.621415
13 *119:3 *119:4 1.4
14 *119:2 *119:3 0.124289
15 *119:1 *119:2 1.4
16 *858:SI *119:1 1.4
*END

*D_NET *120 0.00177272

*CONN
*I *634:AN I *C 23.345 39.295 *L 0.0018 *D NAND4BXL
*I *932:SI I *C 16.385 39.005 *L 0.00268 *D SDFFRHQX4
*I *896:Q O *C 16.385 42.195 *L 0 *D SDFFRHQX4

*CAP
1 *120:1 4.48421e-05
2 *120:2 4.48421e-05
3 *120:3 0.000471469
4 *120:4 0.000510758
5 *120:5 2.24211e-05
6 *120:6 3.9289e-05
7 *120:7 2.24211e-05
8 *120:8 0.000269053
9 *120:10 0.000269053
10 *120:11 3.9289e-05
11 *120:12 3.9289e-05

*RES
1 *120:13 *896:Q 1.4
2 *120:12 *120:13 1.4
3 *120:11 *120:12 0.248578
4 *120:10 *120:11 1.4
5 *120:8 *120:10 1.49147
6 *120:7 *932:SI 1.4
7 *120:6 *120:8 1.4
8 *120:5 *120:7 0.124289
9 *120:4 *120:6 0.248578
10 *120:4 *120:5 1.4
11 *120:3 *120:4 2.98293
12 *120:2 *120:3 1.4
13 *120:1 *120:2 0.248578
14 *634:AN *120:1 1.4
*END

*D_NET *121 0.00456849

*CONN
*I *634:D I *C 21.895 39.005 *L 0.00174 *D NAND4BXL
*I *870:SI I *C 18.125 57.855 *L 0.00168 *D SDFFRX1
*I *931:Q O *C 16.675 36.975 *L 0 *D SDFFRHQX4

*CAP
1 *121:1 4.48421e-05
2 *121:2 4.48421e-05
3 *121:3 0.000255379
4 *121:4 0.000255379
5 *121:5 0.000112105
6 *121:6 0.00150443
7 *121:7 0.00139233
8 *121:8 0.000176801
9 *121:10 0.000176801
10 *121:11 0.00022421
11 *121:12 0.00022421
12 *121:13 7.85781e-05
13 *121:14 7.85781e-05

*RES
1 *121:15 *931:Q 1.4
2 *121:14 *121:15 1.4
3 *121:13 *121:14 0.497155
4 *121:12 *121:13 1.4
5 *121:11 *121:12 1.24289
6 *121:10 *121:11 1.4
7 *121:8 *121:10 1.1186
8 *121:7 *870:SI 1.4
9 *121:6 *121:8 1.4
10 *121:6 *121:7 7.7059
11 *121:5 *121:6 0.621444
12 *121:4 *121:5 1.4
13 *121:3 *121:4 1.61575
14 *121:2 *121:3 1.4
15 *121:1 *121:2 0.248578
16 *634:D *121:1 1.4
*END

*D_NET *122 0.00292877

*CONN
*I *634:C I *C 22.185 39.005 *L 0.00163 *D NAND4BXL
*I *932:Q O *C 6.525 39.005 *L 0 *D SDFFRHQX4
*I *916:SI I *C 6.525 33.785 *L 0.00268 *D SDFFRHQX4

*CAP
1 *122:2 0.0010608
2 *122:3 0.0010608
3 *122:4 0.000403579
4 *122:6 0.000403579

*RES
1 *122:6 *916:SI 1.4
2 *122:4 *122:6 2.2372
3 *122:4 *932:Q 1.4
4 *122:3 *122:4 1.4
5 *122:2 *122:3 6.71159
6 *122:1 *122:2 1.4
7 *634:C *122:1 1.4
*END

*D_NET *123 0.00373706

*CONN
*I *634:B I *C 22.765 39.005 *L 0.00163 *D NAND4BXL
*I *916:Q O *C 16.385 33.785 *L 0 *D SDFFRHQX4
*I *941:SI I *C 17.255 21.315 *L 0.00268 *D SDFFRHQX4

*CAP
1 *123:1 0.000291474
2 *123:2 0.000291474
3 *123:3 0.000294668
4 *123:4 0.000294668
5 *123:5 8.96842e-05
6 *123:6 0.0010435
7 *123:7 0.000137512
8 *123:8 0.000953817
9 *123:9 0.000137512
10 *123:10 7.89544e-05
11 *123:11 2.24211e-05
12 *123:12 7.89544e-05
13 *123:13 2.24211e-05

*RES
1 *123:14 *941:SI 1.4
2 *123:13 *916:Q 1.4
3 *123:12 *123:14 1.4
4 *123:11 *123:13 0.124289
5 *123:10 *123:12 0.497155
6 *123:9 *123:11 1.4
7 *123:8 *123:10 1.4
8 *123:7 *123:9 0.870021
9 *123:6 *123:8 5.46861
10 *123:6 *123:7 1.4
11 *123:5 *123:6 0.497155
12 *123:4 *123:5 1.4
13 *123:3 *123:4 1.86433
14 *123:2 *123:3 1.4
15 *123:1 *123:2 1.61575
16 *634:B *123:1 1.4
*END

*D_NET *124 0.00667692

*CONN
*I *881:D I *C 94.685 104.835 *L 0.00278 *D SDFFRHQX8
*I *576:Q O *C 68.005 89.465 *L 0 *D SDFFRHQX1
*I *577:SI I *C 68.875 86.275 *L 0.00276 *D SDFFRHQX1

*CAP
1 *124:1 0.00112494
2 *124:2 0.00112494
3 *124:3 0.00190012
4 *124:4 0.00190012
5 *124:5 2.0853e-05
6 *124:6 0.000250236
7 *124:7 2.10557e-05
8 *124:8 0.000229383
9 *124:9 2.10557e-05
10 *124:10 4.21114e-05
11 *124:12 4.21114e-05

*RES
1 *124:14 *577:SI 1.4
2 *124:12 *124:14 1.4
3 *124:11 *576:Q 1.4
4 *124:10 *124:12 0.248578
5 *124:9 *124:11 1.4
6 *124:8 *124:10 1.4
7 *124:7 *124:9 0.124289
8 *124:6 *124:8 1.36711
9 *124:6 *124:7 1.4
10 *124:5 *124:6 0.124283
11 *124:4 *124:5 1.4
12 *124:3 *124:4 11.3103
13 *124:2 *124:3 1.4
14 *124:1 *124:2 6.46302
15 *881:D *124:1 1.4
*END

*D_NET *125 0.00500855

*CONN
*I *880:D I *C 85.985 106.865 *L 0.00278 *D SDFFRHQX8
*I *577:Q O *C 77.285 85.695 *L 0 *D SDFFRHQX1
*I *648:SI I *C 76.995 83.665 *L 0.00276 *D SDFFRHQX1

*CAP
1 *125:1 0.00147419
2 *125:2 0.00147419
3 *125:3 0.00049856
4 *125:4 0.00049856
5 *125:5 0.000238871
6 *125:6 0.000238871
7 *125:7 0.000125628
8 *125:8 0.000146684
9 *125:9 0.000145971
10 *125:10 2.10557e-05
11 *125:11 0.000145971

*RES
1 *125:12 *648:SI 1.4
2 *125:11 *577:Q 1.4
3 *125:10 *125:12 1.4
4 *125:9 *125:11 0.869982
5 *125:8 *125:10 0.124289
6 *125:8 *125:9 1.4
7 *125:7 *125:8 0.745733
8 *125:6 *125:7 1.4
9 *125:5 *125:6 1.36718
10 *125:4 *125:5 1.4
11 *125:3 *125:4 2.98293
12 *125:2 *125:3 1.4
13 *125:1 *125:2 8.57592
14 *880:D *125:1 1.4
*END

*D_NET *126 0.0111145

*CONN
*I *657:A I *C 95.265 70.325 *L 0.00273 *D NOR4X1
*I *656:A I *C 96.425 75.835 *L 0.0017 *D MX2X1
*I *910:SI I *C 108.605 16.095 *L 0.00268 *D SDFFRHQX4
*I *943:Q O *C 108.025 7.685 *L 0 *D SDFFRHQX4

*CAP
1 *126:1 4.37057e-05
2 *126:2 4.37057e-05
3 *126:3 8.09903e-05
4 *126:4 8.09903e-05
5 *126:5 6.55585e-05
6 *126:6 0.000458909
7 *126:7 0.000828855
8 *126:8 0.000393351
9 *126:9 0.000828855
10 *126:11 0.00361243
11 *126:12 0.00410983
12 *126:14 0.000497405
13 *126:15 3.49328e-05
14 *126:16 3.49328e-05

*RES
1 *126:17 *943:Q 1.4
2 *126:16 *126:17 1.4
3 *126:15 *126:16 0.248565
4 *126:14 *126:15 1.4
5 *126:12 *126:14 3.60437
6 *126:12 *910:SI 1.4
7 *126:11 *126:12 23.3654
8 *126:9 *126:11 1.4
9 *126:8 *656:A 1.4
10 *126:7 *126:9 5.22005
11 *126:6 *126:8 2.2372
12 *126:6 *126:7 1.4
13 *126:5 *126:6 0.372866
14 *126:4 *126:5 1.4
15 *126:3 *126:4 0.497155
16 *126:2 *126:3 1.4
17 *126:1 *126:2 0.248578
18 *657:A *126:1 1.4
*END

*D_NET *127 0.0124714

*CONN
*I *655:A I *C 85.405 70.615 *L 0.0017 *D MX2X1
*I *657:B I *C 94.685 70.615 *L 0.00273 *D NOR4X1
*I *935:SI I *C 104.835 12.905 *L 0.00268 *D SDFFRHQX4
*I *938:Q O *C 102.805 5.655 *L 0 *D SDFFRHQX4

*CAP
1 *127:2 0.000647922
2 *127:3 0.000647922
3 *127:5 0.00421363
4 *127:7 0.00421363
5 *127:8 0.000459564
6 *127:9 0.000459564
7 *127:10 7.98154e-05
8 *127:11 0.000578662
9 *127:12 0.000236
10 *127:13 0.000498846
11 *127:14 0.000236
12 *127:15 9.99051e-05
13 *127:17 9.99051e-05

*RES
1 *127:19 *938:Q 1.4
2 *127:17 *127:19 1.4
3 *127:16 *935:SI 1.4
4 *127:15 *127:17 0.621416
5 *127:14 *127:16 1.4
6 *127:13 *127:15 1.4
7 *127:12 *127:14 1.4914
8 *127:11 *127:13 3.10707
9 *127:11 *127:12 1.4
10 *127:10 *127:11 0.497131
11 *127:9 *127:10 1.4
12 *127:8 *127:9 2.85851
13 *127:7 *127:8 1.4
14 *127:5 *127:7 24.2355
15 *127:4 *657:B 1.4
16 *127:3 *127:5 1.4
17 *127:3 *127:4 1.4
18 *127:2 *127:3 3.97724
19 *127:1 *127:2 1.4
20 *655:A *127:1 1.4
*END

*D_NET *128 0.0114786

*CONN
*I *943:SI I *C 98.165 7.685 *L 0.00268 *D SDFFRHQX4
*I *935:Q O *C 94.975 12.905 *L 0 *D SDFFRHQX4
*I *657:C I *C 94.105 70.615 *L 0.00274 *D NOR4X1
*I *653:A I *C 95.265 81.055 *L 0.0017 *D MX2X1

*CAP
1 *128:2 0.00019981
2 *128:3 0.00019981
3 *128:4 0.000359169
4 *128:5 0.000359169
5 *128:6 1.9981e-05
6 *128:7 1.9981e-05
7 *128:8 0.00429345
8 *128:9 0.00507884
9 *128:11 0.000785398
10 *128:12 6.07427e-05
11 *128:13 2.07733e-05
12 *128:14 6.07427e-05
13 *128:15 2.07733e-05

*RES
1 *128:17 *653:A 1.4
2 *128:16 *657:C 1.4
3 *128:15 *128:17 1.4
4 *128:14 *128:16 1.4
5 *128:13 *128:15 0.124289
6 *128:12 *128:14 0.372866
7 *128:11 *128:13 1.4
8 *128:9 *128:12 1.4
9 *128:9 *128:11 4.4744
10 *128:8 *935:Q 1.4
11 *128:8 *128:9 24.7326
12 *128:7 *128:8 1.4
13 *128:6 *128:7 0.124283
14 *128:5 *128:6 1.4
15 *128:4 *128:5 2.23709
16 *128:3 *128:4 1.4
17 *128:2 *128:3 1.24283
18 *128:1 *128:2 1.4
19 *943:SI *128:1 1.4
*END

*D_NET *129 0.0103559

*CONN
*I *654:A I *C 84.535 75.835 *L 0.0017 *D MX2X1
*I *657:D I *C 93.815 70.615 *L 0.00283 *D NOR4X1
*I *925:SI I *C 81.345 21.315 *L 0.00268 *D SDFFRHQX4
*I *934:Q O *C 85.115 21.315 *L 0 *D SDFFRHQX4

*CAP
1 *129:2 2.02476e-05
2 *129:3 2.02476e-05
3 *129:4 0.000371498
4 *129:5 0.000371498
5 *129:6 2.02476e-05
6 *129:7 0.00066817
7 *129:8 0.000647922
8 *129:9 0.00375659
9 *129:10 2.18528e-05
10 *129:11 0.00377654
11 *129:12 2.18528e-05
12 *129:13 0.000219791
13 *129:14 1.99539e-05
14 *129:16 0.000219791
15 *129:17 3.99621e-05
16 *129:18 1.99539e-05
17 *129:19 3.99621e-05
18 *129:20 1.99539e-05
19 *129:21 3.99077e-05
20 *129:23 3.99077e-05

*RES
1 *129:23 *934:Q 1.4
2 *129:21 *129:23 0.248565
3 *129:20 *925:SI 1.4
4 *129:19 *129:21 1.4
5 *129:18 *129:20 0.124283
6 *129:17 *129:19 0.248566
7 *129:16 *129:18 1.4
8 *129:14 *129:17 1.4
9 *129:13 *129:16 1.36711
10 *129:12 *657:D 1.4
11 *129:11 *129:14 0.124283
12 *129:11 *129:13 1.4
13 *129:10 *129:12 0.124289
14 *129:9 *129:11 21.377
15 *129:8 *129:10 1.4
16 *129:7 *129:9 1.4
17 *129:7 *129:8 3.97724
18 *129:6 *129:7 0.124289
19 *129:5 *129:6 1.4
20 *129:4 *129:5 2.11291
21 *129:3 *129:4 1.4
22 *129:2 *129:3 0.124289
23 *129:1 *129:2 1.4
24 *654:A *129:1 1.4
*END

*D_NET *130 0.00431147

*CONN
*I *650:SI I *C 91.205 73.225 *L 0.00269 *D SDFFSHQX1
*I *656:B I *C 97.585 75.835 *L 0.00184 *D MX2X1
*I *887:D I *C 92.365 91.205 *L 0.00278 *D SDFFRHQX8
*I *652:Q O *C 99.325 79.025 *L 0 *D SDFFRHQX1

*CAP
1 *130:1 0.000196675
2 *130:2 0.000196675
3 *130:3 8.09903e-05
4 *130:4 0.000445446
5 *130:5 0.000485942
6 *130:6 0.00115209
7 *130:7 0.000121485
8 *130:9 0.00115209
9 *130:10 0.000240038
10 *130:13 0.000240038

*RES
1 *130:13 *652:Q 1.4
2 *130:10 *130:13 1.36718
3 *130:9 *887:D 1.4
4 *130:8 *656:B 1.4
5 *130:7 *130:10 1.4
6 *130:6 *130:9 6.5873
7 *130:5 *130:8 1.4
8 *130:5 *130:7 0.745732
9 *130:4 *130:6 1.4
10 *130:4 *130:5 2.2372
11 *130:3 *130:4 0.497155
12 *130:2 *130:3 1.4
13 *130:1 *130:2 1.1186
14 *650:SI *130:1 1.4
*END

*D_NET *131 0.00455396

*CONN
*I *886:D I *C 83.665 94.395 *L 0.00278 *D SDFFRHQX8
*I *651:SI I *C 80.765 81.055 *L 0.00276 *D SDFFRHQX1
*I *650:Q O *C 82.795 73.805 *L 0 *D SDFFSHQX1
*I *655:B I *C 86.565 70.615 *L 0.00184 *D MX2X1

*CAP
1 *131:1 0.0009772
2 *131:2 0.0009772
3 *131:3 4.15467e-05
4 *131:4 0.000207733
5 *131:5 0.000566732
6 *131:6 0.000166187
7 *131:7 0.000697849
8 *131:8 2.17156e-05
9 *131:9 2.02476e-05
10 *131:10 0.000131117
11 *131:11 2.17156e-05
12 *131:12 2.02476e-05
13 *131:13 0.000242971
14 *131:16 0.000242971
15 *131:18 0.000109264
16 *131:19 0.000109264

*RES
1 *131:19 *655:B 1.4
2 *131:18 *131:19 0.621444
3 *131:16 *131:18 1.4
4 *131:15 *650:Q 1.4
5 *131:13 *131:16 1.49146
6 *131:12 *131:15 1.4
7 *131:11 *651:SI 1.4
8 *131:10 *131:13 1.4
9 *131:9 *131:12 0.124289
10 *131:8 *131:11 0.124289
11 *131:7 *131:10 0.745733
12 *131:7 *131:9 1.4
13 *131:6 *131:8 1.4
14 *131:5 *131:7 3.23151
15 *131:4 *131:6 0.99431
16 *131:4 *131:5 1.4
17 *131:3 *131:4 0.248578
18 *131:2 *131:3 1.4
19 *131:1 *131:2 5.59299
20 *886:D *131:1 1.4
*END

*D_NET *132 0.00386357

*CONN
*I *888:D I *C 90.915 99.615 *L 0.00278 *D SDFFRHQX8
*I *651:Q O *C 89.175 80.475 *L 0 *D SDFFRHQX1
*I *649:SI I *C 89.465 83.665 *L 0.00269 *D SDFFSHQX1
*I *653:B I *C 94.105 81.055 *L 0.00184 *D MX2X1

*CAP
1 *132:2 0.00012464
2 *132:3 0.00012464
3 *132:4 0.00119436
4 *132:5 0.0013898
5 *132:6 2.07733e-05
6 *132:7 0.000238871
7 *132:8 2.07733e-05
8 *132:9 0.000353147
9 *132:10 4.34311e-05
10 *132:12 0.000353147

*RES
1 *132:15 *653:B 1.4
2 *132:12 *132:15 1.4
3 *132:11 *649:SI 1.4
4 *132:10 *651:Q 1.4
5 *132:9 *132:12 2.11291
6 *132:8 *132:11 1.4
7 *132:7 *132:10 0.248578
8 *132:7 *132:9 1.4
9 *132:6 *132:8 0.124289
10 *132:5 *132:7 1.1186
11 *132:5 *132:6 1.4
12 *132:4 *132:5 6.83588
13 *132:3 *132:4 1.4
14 *132:2 *132:3 0.745733
15 *132:1 *132:2 1.4
16 *888:D *132:1 1.4
*END

*D_NET *133 0.00489106

*CONN
*I *654:B I *C 85.695 75.835 *L 0.00184 *D MX2X1
*I *868:SI I *C 82.505 86.275 *L 0.00271 *D SDFFRHQX8
*I *649:Q O *C 81.055 84.245 *L 0 *D SDFFSHQX1
*I *889:D I *C 75.835 96.425 *L 0.00278 *D SDFFRHQX8

*CAP
1 *133:2 6.07427e-05
2 *133:3 6.07427e-05
3 *133:4 0.000587487
4 *133:5 0.000587487
5 *133:6 0.000166187
6 *133:7 0.000270053
7 *133:8 0.00019544
8 *133:9 0.000103867
9 *133:10 0.00019544
10 *133:11 4.34311e-05
11 *133:13 0.000955485
12 *133:14 0.000912054
13 *133:16 0.00037632
14 *133:17 0.00037632

*RES
1 *133:18 *889:D 1.4
2 *133:17 *133:18 1.4
3 *133:16 *133:17 2.2372
4 *133:14 *133:16 1.4
5 *133:13 *649:Q 1.4
6 *133:13 *133:14 5.22013
7 *133:11 *133:13 0.248578
8 *133:10 *868:SI 1.4
9 *133:9 *133:11 1.4
10 *133:8 *133:10 1.1186
11 *133:7 *133:9 0.621444
12 *133:7 *133:8 1.4
13 *133:6 *133:7 0.99431
14 *133:5 *133:6 1.4
15 *133:4 *133:5 3.3558
16 *133:3 *133:4 1.4
17 *133:2 *133:3 0.372866
18 *133:1 *133:2 1.4
19 *654:B *133:1 1.4
*END

*D_NET *134 0.00177196

*CONN
*I *665:A I *C 63.365 16.095 *L 0.00162 *D NOR2XL
*I *909:SI I *C 62.785 5.655 *L 0.00268 *D SDFFRHQX4
*I *953:Q O *C 61.335 7.685 *L 0 *D SDFFRHQX4

*CAP
1 *134:1 0.00059944
2 *134:2 0.00059944
3 *134:3 4.19067e-05
4 *134:4 0.000146674
5 *134:5 0.000119888
6 *134:6 0.000104767
7 *134:7 0.000119888
8 *134:8 1.99813e-05
9 *134:10 1.99813e-05

*RES
1 *134:10 *953:Q 1.4
2 *134:8 *134:10 0.124289
3 *134:7 *909:SI 1.4
4 *134:6 *134:8 1.4
5 *134:5 *134:7 0.745732
6 *134:4 *134:6 0.621444
7 *134:4 *134:5 1.4
8 *134:3 *134:4 0.248578
9 *134:2 *134:3 1.4
10 *134:1 *134:2 3.72866
11 *665:A *134:1 1.4
*END

*D_NET *135 0.00229234

*CONN
*I *665:B I *C 63.075 15.805 *L 0.00171 *D NOR2XL
*I *940:Q O *C 71.195 10.875 *L 0 *D SDFFRHQX4
*I *953:SI I *C 71.195 7.685 *L 0.00268 *D SDFFRHQX4

*CAP
1 *135:1 0.00029972
2 *135:2 0.00029972
3 *135:3 0.000586694
4 *135:4 0.000586694
5 *135:5 3.99626e-05
6 *135:6 0.000259757
7 *135:8 0.000219795

*RES
1 *135:8 *953:SI 1.4
2 *135:6 *135:8 1.36718
3 *135:6 *940:Q 1.4
4 *135:5 *135:6 0.248578
5 *135:4 *135:5 1.4
6 *135:3 *135:4 3.48009
7 *135:2 *135:3 1.4
8 *135:1 *135:2 1.86433
9 *665:B *135:1 1.4
*END

*D_NET *136 0.00321574

*CONN
*I *940:SI I *C 61.335 10.875 *L 0.00268 *D SDFFRHQX4
*I *663:A1N I *C 59.885 15.805 *L 0.0017 *D OAI2BB1X1
*I *661:A0 I *C 54.955 16.095 *L 0.00265 *D AOI21X1
*I *952:Q O *C 48.575 10.875 *L 0 *D SDFFRHQX4

*CAP
1 *136:1 0.000319701
2 *136:2 0.000319701
3 *136:3 0.000104767
4 *136:4 0.000460974
5 *136:5 1.99813e-05
6 *136:6 0.000356207
7 *136:7 1.99813e-05
8 *136:8 0.000359664
9 *136:10 3.99626e-05
10 *136:11 0.000319701
11 *136:13 0.000447549
12 *136:14 0.000447549

*RES
1 *136:15 *952:Q 1.4
2 *136:14 *136:15 1.4
3 *136:13 *136:14 2.73428
4 *136:11 *136:13 1.4
5 *136:10 *661:A0 1.4
6 *136:8 *136:11 1.98862
7 *136:8 *136:10 0.248578
8 *136:7 *663:A1N 1.4
9 *136:6 *136:8 1.4
10 *136:5 *136:7 0.124289
11 *136:4 *136:6 2.11291
12 *136:4 *136:5 1.4
13 *136:3 *136:4 0.621444
14 *136:2 *136:3 1.4
15 *136:1 *136:2 1.98862
16 *940:SI *136:1 1.4
*END

*D_NET *137 0.00088501

*CONN
*I *663:A0N I *C 59.305 16.095 *L 0.00173 *D OAI2BB1X1
*I *951:Q O *C 58.725 12.905 *L 0 *D SDFFRHQX4
*I *952:SI I *C 58.435 10.875 *L 0.00268 *D SDFFRHQX4

*CAP
1 *137:1 0.000199813
2 *137:2 0.000199813
3 *137:3 4.19067e-05
4 *137:4 6.28601e-05
5 *137:5 1.99813e-05
6 *137:6 2.09534e-05
7 *137:7 1.99813e-05
8 *137:8 0.000159851
9 *137:10 0.000159851

*RES
1 *137:10 *952:SI 1.4
2 *137:8 *137:10 0.99431
3 *137:7 *951:Q 1.4
4 *137:6 *137:8 1.4
5 *137:5 *137:7 0.124289
6 *137:4 *137:6 0.124289
7 *137:4 *137:5 1.4
8 *137:3 *137:4 0.248578
9 *137:2 *137:3 1.4
10 *137:1 *137:2 1.24289
11 *663:A0N *137:1 1.4
*END

*D_NET *138 0.00342795

*CONN
*I *664:C0 I *C 47.995 16.385 *L 0.00287 *D OAI211X1
*I *951:SI I *C 48.865 12.905 *L 0.00268 *D SDFFRHQX4
*I *930:Q O *C 57.565 5.655 *L 0 *D SDFFRHQX4
*I *661:A1 I *C 55.245 16.095 *L 0.00278 *D AOI21X1

*CAP
1 *138:1 1.9775e-05
2 *138:2 1.9775e-05
3 *138:3 5.96382e-05
4 *138:4 5.96382e-05
5 *138:5 0.000257075
6 *138:6 0.000257075
7 *138:7 0.000448623
8 *138:9 0.000469577
9 *138:10 2.09534e-05
10 *138:11 0.000499533
11 *138:12 0.000219795
12 *138:13 0.000499533
13 *138:14 0.000219795
14 *138:15 0.000167627
15 *138:16 2.09534e-05
16 *138:17 0.000167627
17 *138:18 2.09534e-05

*RES
1 *138:20 *661:A1 1.4
2 *138:19 *930:Q 1.4
3 *138:18 *138:20 1.4
4 *138:17 *138:19 1.4
5 *138:16 *138:18 0.124289
6 *138:15 *138:17 0.99431
7 *138:14 *138:16 1.4
8 *138:13 *138:15 1.4
9 *138:12 *138:14 1.36718
10 *138:11 *138:13 3.10722
11 *138:10 *138:12 1.4
12 *138:9 *138:11 1.4
13 *138:9 *138:10 0.124289
14 *138:7 *138:9 2.73429
15 *138:6 *951:SI 1.4
16 *138:6 *138:7 1.4
17 *138:5 *138:6 1.61568
18 *138:4 *138:5 1.4
19 *138:3 *138:4 0.372849
20 *138:2 *138:3 1.4
21 *138:1 *138:2 0.124283
22 *664:C0 *138:1 1.4
*END

*D_NET *139 0.00178163

*CONN
*I *930:SI I *C 47.705 5.655 *L 0.00268 *D SDFFRHQX4
*I *664:B0 I *C 47.705 15.805 *L 0.0028 *D OAI211X1
*I *950:Q O *C 45.675 7.685 *L 0 *D SDFFRHQX4

*CAP
1 *139:2 1.98794e-05
2 *139:3 1.98794e-05
3 *139:4 0.0001582
4 *139:5 0.0001582
5 *139:6 1.98794e-05
6 *139:7 0.000159035
7 *139:8 0.000533925
8 *139:9 0.000139156
9 *139:10 0.000533925
10 *139:11 1.9775e-05
11 *139:13 1.9775e-05

*RES
1 *139:13 *950:Q 1.4
2 *139:11 *139:13 0.124283
3 *139:10 *664:B0 1.4
4 *139:9 *139:11 1.4
5 *139:8 *139:10 3.35565
6 *139:7 *139:9 0.869982
7 *139:7 *139:8 1.4
8 *139:6 *139:7 0.124283
9 *139:5 *139:6 1.4
10 *139:4 *139:5 0.994265
11 *139:3 *139:4 1.4
12 *139:2 *139:3 0.124283
13 *139:1 *139:2 1.4
14 *930:SI *139:1 1.4
*END

*D_NET *140 0.00611346

*CONN
*I *926:SI I *C 81.055 7.685 *L 0.00268 *D SDFFRHQX4
*I *664:A1 I *C 47.415 15.805 *L 0.00278 *D OAI211X1
*I *942:Q O *C 45.965 10.875 *L 0 *D SDFFRHQX4

*CAP
1 *140:2 0.00234399
2 *140:3 0.00234399
3 *140:4 9.8875e-05
4 *140:5 9.8875e-05
5 *140:6 5.96382e-05
6 *140:7 5.96382e-05
7 *140:8 0.00011865
8 *140:9 0.000454825
9 *140:10 0.000336175
10 *140:11 9.9397e-05
11 *140:13 9.9397e-05

*RES
1 *140:14 *942:Q 1.4
2 *140:13 *140:14 1.4
3 *140:11 *140:13 0.621416
4 *140:10 *664:A1 1.4
5 *140:9 *140:11 1.4
6 *140:9 *140:10 2.11281
7 *140:8 *140:9 0.745699
8 *140:7 *140:8 1.4
9 *140:6 *140:7 0.372849
10 *140:5 *140:6 1.4
11 *140:4 *140:5 0.621416
12 *140:3 *140:4 1.4
13 *140:2 *140:3 14.0445
14 *140:1 *140:2 1.4
15 *926:SI *140:1 1.4
*END

*D_NET *141 0.00623513

*CONN
*I *931:SI I *C 6.815 36.975 *L 0.00268 *D SDFFRHQX4
*I *674:A I *C 25.375 33.785 *L 0.00273 *D INVX1
*I *848:B0 I *C 27.985 21.315 *L 0.00277 *D AOI31X1
*I *846:AN I *C 29.435 23.635 *L 0.00174 *D NOR2BXL
*I *967:Q O *C 24.505 18.125 *L 0 *D SDFFRHQX4

*CAP
1 *141:1 0.000246632
2 *141:2 0.000246632
3 *141:3 0.00125725
4 *141:4 0.00143619
5 *141:5 0.000178939
6 *141:7 0.000721181
7 *141:9 0.000879381
8 *141:10 9.9397e-05
9 *141:11 0.00035595
10 *141:12 9.9397e-05
11 *141:14 0.00019775
12 *141:16 0.000237778
13 *141:18 0.000237778
14 *141:19 2.04387e-05
15 *141:20 2.04387e-05

*RES
1 *141:20 *967:Q 1.4
2 *141:19 *141:20 0.124283
3 *141:18 *141:19 1.4
4 *141:16 *141:18 1.49143
5 *141:15 *846:AN 1.4
6 *141:14 *141:16 1.4
7 *141:12 *141:15 1.4
8 *141:11 *141:14 1.24283
9 *141:11 *848:B0 1.4
10 *141:10 *141:12 0.621416
11 *141:9 *141:11 0.994265
12 *141:9 *141:10 1.4
13 *141:7 *141:9 4.3499
14 *141:6 *674:A 1.4
15 *141:5 *141:7 1.4
16 *141:4 *141:6 1.4
17 *141:4 *141:5 1.1186
18 *141:3 *141:4 7.95448
19 *141:2 *141:3 1.4
20 *141:1 *141:2 1.36718
21 *931:SI *141:1 1.4
*END

*D_NET *142 0.00198251

*CONN
*I *847:AN I *C 39.585 21.315 *L 0.00178 *D NAND3BX1
*I *844:S0 I *C 36.105 21.025 *L 0.00372 *D MXI2XL
*I *961:Q O *C 34.075 16.095 *L 0 *D SDFFRHQX4
*I *675:A I *C 32.915 23.345 *L 0.00273 *D INVX1
*I *967:SI I *C 34.365 18.125 *L 0.00268 *D SDFFRHQX4

*CAP
1 *142:1 1.9775e-05
2 *142:2 1.9775e-05
3 *142:3 0.000238553
4 *142:4 0.000377708
5 *142:6 0.000218673
6 *142:8 0.00019775
7 *142:9 7.95176e-05
8 *142:10 0.000336175
9 *142:11 0.0001582
10 *142:12 1.98794e-05
11 *142:13 0.000138425
12 *142:14 0.0001582
13 *142:15 1.98794e-05

*RES
1 *142:18 *967:SI 1.4
2 *142:15 *142:18 1.4
3 *142:14 *675:A 1.4
4 *142:13 *961:Q 1.4
5 *142:12 *142:15 0.124283
6 *142:11 *142:14 0.994265
7 *142:10 *142:13 0.869982
8 *142:10 *142:12 1.4
9 *142:9 *142:11 1.4
10 *142:8 *142:10 1.24283
11 *142:6 *142:9 0.497133
12 *142:6 *142:8 1.4
13 *142:5 *844:S0 1.4
14 *142:4 *142:6 0.869982
15 *142:4 *142:5 1.4
16 *142:3 *142:4 1.4914
17 *142:2 *142:3 1.4
18 *142:1 *142:2 0.124283
19 *847:AN *142:1 1.4
*END

*D_NET *143 0.00569567

*CONN
*I *680:A I *C 22.765 33.785 *L 0.00273 *D INVX1
*I *849:B0 I *C 22.475 23.345 *L 0.00278 *D AOI211X1
*I *848:A0 I *C 26.825 21.025 *L 0.00261 *D AOI31X1
*I *960:Q O *C 33.205 10.875 *L 0 *D SDFFRHQX4
*I *950:SI I *C 35.815 7.685 *L 0.00268 *D SDFFRHQX4

*CAP
1 *143:2 1.96445e-05
2 *143:3 1.96445e-05
3 *143:4 0.000767886
4 *143:5 0.000788325
5 *143:6 0.000296431
6 *143:7 2.04387e-05
7 *143:8 0.000296431
8 *143:10 0.000177975
9 *143:11 0.0008701
10 *143:13 0.000692125
11 *143:14 0.000437347
12 *143:15 0.000576502
13 *143:16 0.000139156
14 *143:18 1.9775e-05
15 *143:20 1.9775e-05
16 *143:21 3.97588e-05
17 *143:22 3.97588e-05
18 *143:23 0.0002373
19 *143:24 0.0002373

*RES
1 *143:24 *950:SI 1.4
2 *143:23 *143:24 1.4914
3 *143:22 *143:23 1.4
4 *143:21 *143:22 0.248566
5 *143:20 *143:21 1.4
6 *143:18 *143:20 0.124283
7 *143:17 *960:Q 1.4
8 *143:16 *143:18 1.4
9 *143:15 *143:17 1.4
10 *143:15 *143:16 0.869982
11 *143:14 *143:15 2.73423
12 *143:13 *143:14 1.4
13 *143:11 *143:13 4.34991
14 *143:11 *848:A0 1.4
15 *143:10 *143:11 1.11855
16 *143:8 *143:10 1.4
17 *143:7 *849:B0 1.4
18 *143:6 *143:8 1.86432
19 *143:5 *143:7 0.124283
20 *143:5 *143:6 1.4
21 *143:4 *143:5 4.35005
22 *143:3 *143:4 1.4
23 *143:2 *143:3 0.124289
24 *143:1 *143:2 1.4
25 *680:A *143:1 1.4
*END

*D_NET *144 0.00524759

*CONN
*I *676:A I *C 21.315 26.535 *L 0.00273 *D INVX1
*I *849:C0 I *C 23.055 23.345 *L 0.00281 *D AOI211X1
*I *960:SI I *C 23.345 10.875 *L 0.00268 *D SDFFRHQX4
*I *848:A1 I *C 27.115 21.315 *L 0.00269 *D AOI31X1
*I *962:Q O *C 34.075 5.655 *L 0 *D SDFFRHQX4

*CAP
1 *144:1 0.000227799
2 *144:2 0.000227799
3 *144:3 0.000118432
4 *144:4 0.000118432
5 *144:5 0.000122632
6 *144:7 0.000122632
7 *144:8 1.97386e-05
8 *144:9 0.000276833
9 *144:10 0.000257095
10 *144:11 0.000756231
11 *144:12 1.9775e-05
12 *144:13 0.00112413
13 *144:14 1.9775e-05
14 *144:16 0.000367896
15 *144:18 0.0007342
16 *144:19 0.0007342

*RES
1 *144:20 *962:Q 1.4
2 *144:19 *144:20 1.4
3 *144:18 *144:19 4.59853
4 *144:16 *144:18 1.4
5 *144:14 *848:A1 1.4
6 *144:13 *144:16 2.23709
7 *144:13 *960:SI 1.4
8 *144:12 *144:14 0.124283
9 *144:11 *144:13 4.59846
10 *144:10 *144:12 1.4
11 *144:9 *144:11 1.4
12 *144:9 *144:10 1.61573
13 *144:8 *144:9 0.124289
14 *144:7 *144:8 1.4
15 *144:5 *144:7 0.745696
16 *144:5 *849:C0 1.4
17 *144:4 *144:5 1.4
18 *144:3 *144:4 0.745732
19 *144:2 *144:3 1.4
20 *144:1 *144:2 1.36712
21 *676:A *144:1 1.4
*END

*D_NET *145 0.00481458

*CONN
*I *849:A0 I *C 21.84 23.3325 *L 0.00263 *D AOI211X1
*I *679:A I *C 18.995 28.565 *L 0.00273 *D INVX1
*I *851:AN I *C 18.125 23.635 *L 0.00174 *D NAND2BXL
*I *962:SI I *C 24.215 5.655 *L 0.00268 *D SDFFRHQX4
*I *963:Q O *C 17.255 5.655 *L 0 *D SDFFRHQX4

*CAP
1 *145:1 3.8763e-06
2 *145:2 2.50197e-05
3 *145:3 2.11434e-05
4 *145:4 0.000197386
5 *145:5 0.000256602
6 *145:6 0.000364308
7 *145:7 5.92158e-05
8 *145:8 0.000364308
9 *145:9 0.00124676
10 *145:12 0.0012672
11 *145:13 0.000414511
12 *145:14 2.04387e-05
13 *145:15 0.000414511
14 *145:16 5.92158e-05
15 *145:17 2.04387e-05
16 *145:18 5.92158e-05
17 *145:19 2.04387e-05

*RES
1 *145:20 *963:Q 1.4
2 *145:19 *962:SI 1.4
3 *145:18 *145:20 1.4
4 *145:17 *145:19 0.124283
5 *145:16 *145:18 0.372866
6 *145:15 *145:17 1.4
7 *145:14 *145:16 1.4
8 *145:13 *145:15 2.61006
9 *145:12 *145:14 0.124283
10 *145:12 *145:13 1.4
11 *145:9 *145:12 7.58124
12 *145:9 *851:AN 1.4
13 *145:8 *679:A 1.4
14 *145:7 *145:9 1.4
15 *145:6 *145:8 2.11286
16 *145:5 *145:7 0.372866
17 *145:5 *145:6 1.4
18 *145:4 *145:5 1.24289
19 *145:3 *145:4 1.4
20 *145:2 *145:3 0.128568
21 *145:1 *145:2 0.0235709
22 *849:A0 *145:1 1.4
*END

*D_NET *146 0.00777446

*CONN
*I *854:A I *C 10.875 23.345 *L 0.00162 *D NOR2XL
*I *681:A I *C 10.585 54.665 *L 0.00273 *D INVX1
*I *966:Q O *C 7.395 10.875 *L 0 *D SDFFRHQX4
*I *963:SI I *C 7.395 5.655 *L 0.00268 *D SDFFRHQX4

*CAP
1 *146:2 1.97386e-05
2 *146:3 1.97386e-05
3 *146:4 0.00322116
4 *146:5 0.00240361
5 *146:6 0.000817547
6 *146:8 0.000217125
7 *146:9 0.000217125
8 *146:10 6.1316e-05
9 *146:11 0.000429212
10 *146:13 0.000367896

*RES
1 *146:13 *963:SI 1.4
2 *146:11 *146:13 2.23709
3 *146:11 *966:Q 1.4
4 *146:10 *146:11 0.372848
5 *146:9 *146:10 1.4
6 *146:8 *146:9 1.36718
7 *146:6 *146:8 1.4
8 *146:5 *681:A 1.4
9 *146:4 *146:6 4.97131
10 *146:4 *146:5 13.4231
11 *146:3 *146:4 1.4
12 *146:2 *146:3 0.124289
13 *146:1 *146:2 1.4
14 *854:A *146:1 1.4
*END

*D_NET *147 0.00783802

*CONN
*I *854:B I *C 11.165 23.635 *L 0.00171 *D NOR2XL
*I *678:A I *C 13.195 54.665 *L 0.00273 *D INVX1
*I *965:Q O *C 16.965 12.905 *L 0 *D SDFFRHQX4
*I *966:SI I *C 17.255 10.875 *L 0.00268 *D SDFFRHQX4

*CAP
1 *147:2 0.00013817
2 *147:3 0.00013817
3 *147:4 2.04387e-05
4 *147:5 0.00238317
5 *147:6 0.000177647
6 *147:7 0.00236273
7 *147:8 0.000177647
8 *147:10 0.000674476
9 *147:11 0.000674476
10 *147:12 3.94772e-05
11 *147:13 3.94772e-05
12 *147:14 0.000224825
13 *147:15 0.000224825
14 *147:16 0.000118432
15 *147:17 0.00013817
16 *147:18 0.000122632
17 *147:19 1.97386e-05
18 *147:20 0.000122632
19 *147:21 2.04387e-05
20 *147:23 2.04387e-05

*RES
1 *147:23 *966:SI 1.4
2 *147:21 *147:23 0.124283
3 *147:20 *965:Q 1.4
4 *147:19 *147:21 1.4
5 *147:18 *147:20 0.745696
6 *147:17 *147:19 0.124289
7 *147:17 *147:18 1.4
8 *147:16 *147:17 0.745732
9 *147:15 *147:16 1.4
10 *147:14 *147:15 1.36711
11 *147:13 *147:14 1.4
12 *147:12 *147:13 0.248578
13 *147:11 *147:12 1.4
14 *147:10 *147:11 4.10133
15 *147:8 *147:10 1.4
16 *147:7 *678:A 1.4
17 *147:6 *147:8 1.1186
18 *147:5 *147:7 13.1746
19 *147:5 *147:6 1.4
20 *147:4 *147:5 0.124283
21 *147:3 *147:4 1.4
22 *147:2 *147:3 0.870021
23 *147:1 *147:2 1.4
24 *854:B *147:1 1.4
*END

*D_NET *148 0.00510105

*CONN
*I *965:SI I *C 7.105 12.905 *L 0.00268 *D SDFFRHQX4
*I *968:Q O *C 16.965 16.095 *L 0 *D SDFFRHQX4
*I *850:AN I *C 15.225 23.345 *L 0.00178 *D NAND2BX1
*I *677:A I *C 20.445 33.785 *L 0.00273 *D INVX1

*CAP
1 *148:2 1.97386e-05
2 *148:3 1.97386e-05
3 *148:4 0.000143071
4 *148:5 0.000143071
5 *148:6 0.000552681
6 *148:7 0.000552681
7 *148:8 8.17547e-05
8 *148:9 0.000592721
9 *148:10 9.8693e-05
10 *148:11 0.000592721
11 *148:12 9.8693e-05
12 *148:13 8.17547e-05
13 *148:14 1.97386e-05
14 *148:16 0.000335556
15 *148:17 1.97386e-05
16 *148:19 0.000335556
17 *148:21 0.000706571
18 *148:23 0.000706571

*RES
1 *148:23 *677:A 1.4
2 *148:21 *148:23 3.97721
3 *148:20 *850:AN 1.4
4 *148:19 *148:21 1.4
5 *148:17 *148:20 1.4
6 *148:16 *148:19 2.11291
7 *148:15 *968:Q 1.4
8 *148:14 *148:17 0.124289
9 *148:13 *148:16 1.4
10 *148:12 *148:15 1.4
11 *148:11 *148:14 1.4
12 *148:11 *148:13 0.497131
13 *148:10 *148:12 0.621444
14 *148:9 *148:11 3.10707
15 *148:9 *148:10 1.4
16 *148:8 *148:9 0.497131
17 *148:7 *148:8 1.4
18 *148:6 *148:7 3.48009
19 *148:5 *148:6 1.4
20 *148:4 *148:5 0.869979
21 *148:3 *148:4 1.4
22 *148:2 *148:3 0.124289
23 *148:1 *148:2 1.4
24 *965:SI *148:1 1.4
*END

*D_NET *149 0.00825595

*CONN
*I *866:D I *C 8.845 99.615 *L 0.00278 *D SDFFRHQX8
*I *668:Q O *C 16.675 70.035 *L 0 *D SDFFRHQX1
*I *667:SI I *C 28.855 65.395 *L 0.00276 *D SDFFRHQX1

*CAP
1 *149:1 0.0021187
2 *149:2 0.0021187
3 *149:3 0.00042652
4 *149:4 0.00042652
5 *149:5 0.000112675
6 *149:6 0.000473236
7 *149:7 0.000121863
8 *149:8 0.000360561
9 *149:9 0.000121863
10 *149:10 0.000987653
11 *149:12 0.000987653

*RES
1 *149:14 *667:SI 1.4
2 *149:12 *149:14 1.4
3 *149:11 *668:Q 1.4
4 *149:10 *149:12 5.96586
5 *149:9 *149:11 1.4
6 *149:8 *149:10 1.4
7 *149:7 *149:9 0.745732
8 *149:6 *149:8 1.98861
9 *149:6 *149:7 1.4
10 *149:5 *149:6 0.621442
11 *149:4 *149:5 1.4
12 *149:3 *149:4 2.61006
13 *149:2 *149:3 1.4
14 *149:1 *149:2 12.0556
15 *866:D *149:1 1.4
*END

*D_NET *150 0.00649253

*CONN
*I *669:SI I *C 16.675 60.175 *L 0.00276 *D SDFFRHQX1
*I *667:Q O *C 20.445 64.815 *L 0 *D SDFFRHQX1
*I *873:D I *C 17.545 96.425 *L 0.00278 *D SDFFRHQX8

*CAP
1 *150:2 0.000101552
2 *150:3 0.000101552
3 *150:4 0.000338026
4 *150:5 0.000338026
5 *150:6 0.000182794
6 *150:7 0.000182794
7 *150:8 2.2535e-05
8 *150:9 0.00242171
9 *150:10 0.000182794
10 *150:11 0.00239918
11 *150:12 0.000182794
12 *150:13 1.93865e-05
13 *150:15 1.93865e-05

*RES
1 *150:17 *873:D 1.4
2 *150:15 *150:17 1.4
3 *150:14 *667:Q 1.4
4 *150:13 *150:15 0.124283
5 *150:12 *150:14 1.4
6 *150:11 *150:13 1.4
7 *150:10 *150:12 1.1186
8 *150:9 *150:11 13.5471
9 *150:9 *150:10 1.4
10 *150:8 *150:9 0.124288
11 *150:7 *150:8 1.4
12 *150:6 *150:7 1.1186
13 *150:5 *150:6 1.4
14 *150:4 *150:5 1.86433
15 *150:3 *150:4 1.4
16 *150:2 *150:3 0.621444
17 *150:1 *150:2 1.4
18 *669:SI *150:1 1.4
*END

*D_NET *151 0.00465041

*CONN
*I *668:SI I *C 25.085 70.615 *L 0.00276 *D SDFFRHQX1
*I *874:D I *C 23.055 94.395 *L 0.00278 *D SDFFRHQX8
*I *671:Q O *C 17.545 73.805 *L 0 *D SDFFRHQX1

*CAP
1 *151:1 0.000112675
2 *151:2 0.000112675
3 *151:3 0.000142173
4 *151:4 0.000142173
5 *151:5 0.00013521
6 *151:6 0.00168446
7 *151:7 0.00154925
8 *151:8 0.000385899
9 *151:10 0.000385899

*RES
1 *151:11 *671:Q 1.4
2 *151:10 *151:11 1.4
3 *151:8 *151:10 2.36149
4 *151:7 *874:D 1.4
5 *151:6 *151:8 1.4
6 *151:6 *151:7 8.82419
7 *151:5 *151:6 0.74573
8 *151:4 *151:5 1.4
9 *151:3 *151:4 0.870021
10 *151:2 *151:3 1.4
11 *151:1 *151:2 0.621442
12 *668:SI *151:1 1.4
*END

*D_NET *152 0.00554852

*CONN
*I *875:D I *C 8.555 91.205 *L 0.00278 *D SDFFRHQX8
*I *877:SI I *C 6.235 57.855 *L 0.00168 *D SDFFRX1
*I *666:Q O *C 5.365 70.035 *L 0 *D SDFFRHQX1

*CAP
1 *152:1 0.00151423
2 *152:2 0.00151423
3 *152:3 0.000162484
4 *152:4 0.000162484
5 *152:5 9.01402e-05
6 *152:6 0.00103661
7 *152:7 6.09315e-05
8 *152:8 0.000946472
9 *152:9 6.09315e-05

*RES
1 *152:11 *666:Q 1.4
2 *152:9 *152:11 1.4
3 *152:8 *877:SI 1.4
4 *152:7 *152:9 0.372866
5 *152:6 *152:8 5.22011
6 *152:6 *152:7 1.4
7 *152:5 *152:6 0.497154
8 *152:4 *152:5 1.4
9 *152:3 *152:4 0.99431
10 *152:2 *152:3 1.4
11 *152:1 *152:2 8.57567
12 *875:D *152:1 1.4
*END

*D_NET *153 0.00297356

*CONN
*I *666:SI I *C 13.775 70.615 *L 0.00276 *D SDFFRHQX1
*I *672:Q O *C 14.645 73.805 *L 0 *D SDFFRHQX1
*I *867:D I *C 17.255 85.985 *L 0.00278 *D SDFFRHQX8

*CAP
1 *153:1 4.50701e-05
2 *153:2 4.50701e-05
3 *153:3 0.000101552
4 *153:4 0.000101552
5 *153:5 4.50701e-05
6 *153:6 4.50701e-05
7 *153:7 4.0621e-05
8 *153:8 4.0621e-05
9 *153:9 0.000157745
10 *153:10 0.00107999
11 *153:11 0.000922244
12 *153:13 0.000174478
13 *153:14 0.000174478

*RES
1 *153:15 *867:D 1.4
2 *153:14 *153:15 1.4
3 *153:13 *153:14 1.11855
4 *153:11 *153:13 1.4
5 *153:10 *672:Q 1.4
6 *153:10 *153:11 5.21997
7 *153:9 *153:10 0.870019
8 *153:8 *153:9 1.4
9 *153:7 *153:8 0.248578
10 *153:6 *153:7 1.4
11 *153:5 *153:6 0.248577
12 *153:4 *153:5 1.4
13 *153:3 *153:4 0.621444
14 *153:2 *153:3 1.4
15 *153:1 *153:2 0.248577
16 *666:SI *153:1 1.4
*END

*D_NET *154 0.00379091

*CONN
*I *865:D I *C 17.255 83.955 *L 0.00278 *D SDFFRHQX8
*I *673:SI I *C 14.065 68.005 *L 0.00276 *D SDFFRHQX1
*I *670:Q O *C 18.995 64.815 *L 0 *D SDFFRHQX1

*CAP
1 *154:2 5.81594e-05
2 *154:3 5.81594e-05
3 *154:4 0.00119906
4 *154:5 0.00119906
5 *154:6 0.000324968
6 *154:7 4.0621e-05
7 *154:8 0.000284347
8 *154:9 0.00027042
9 *154:10 2.2535e-05
10 *154:11 0.00027042
11 *154:12 2.2535e-05
12 *154:13 2.03105e-05
13 *154:15 2.03105e-05

*RES
1 *154:16 *670:Q 1.4
2 *154:15 *154:16 1.4
3 *154:13 *154:15 0.124289
4 *154:12 *673:SI 1.4
5 *154:11 *154:13 1.4
6 *154:10 *154:12 0.124288
7 *154:9 *154:11 1.49146
8 *154:8 *154:10 1.4
9 *154:7 *154:9 1.4
10 *154:6 *154:8 1.74004
11 *154:6 *154:7 0.248578
12 *154:5 *154:6 1.4
13 *154:4 *154:5 6.71147
14 *154:3 *154:4 1.4
15 *154:2 *154:3 0.37285
16 *154:1 *154:2 1.4
17 *865:D *154:1 1.4
*END

*D_NET *155 0.00228361

*CONN
*I *871:D I *C 8.265 80.765 *L 0.00278 *D SDFFRHQX8
*I *672:SI I *C 6.235 73.225 *L 0.00276 *D SDFFRHQX1
*I *673:Q O *C 5.655 68.585 *L 0 *D SDFFRHQX1

*CAP
1 *155:1 0.00057814
2 *155:2 0.00057814
3 *155:3 0.000121863
4 *155:4 0.000142173
5 *155:5 0.000360561
6 *155:6 2.03105e-05
7 *155:7 0.000360561
8 *155:9 6.09315e-05
9 *155:11 6.09315e-05

*RES
1 *155:12 *673:Q 1.4
2 *155:11 *155:12 1.4
3 *155:9 *155:11 0.372866
4 *155:8 *672:SI 1.4
5 *155:7 *155:9 1.4
6 *155:6 *155:8 1.4
7 *155:5 *155:7 1.98861
8 *155:4 *155:6 0.124289
9 *155:4 *155:5 1.4
10 *155:3 *155:4 0.745732
11 *155:2 *155:3 1.4
12 *155:1 *155:2 3.23145
13 *871:D *155:1 1.4
*END

*D_NET *156 0.00346979

*CONN
*I *872:D I *C 23.635 75.545 *L 0.00278 *D SDFFRHQX8
*I *876:SI I *C 20.445 63.075 *L 0.00168 *D SDFFRX1
*I *669:Q O *C 25.085 59.595 *L 0 *D SDFFRHQX1

*CAP
1 *156:2 2.03105e-05
2 *156:3 2.03105e-05
3 *156:4 0.000969007
4 *156:5 0.000991542
5 *156:6 0.000243726
6 *156:7 2.2535e-05
7 *156:8 0.000243726
8 *156:9 0.000163155
9 *156:11 0.000163155
10 *156:13 0.000234249
11 *156:14 0.000234249
12 *156:15 8.1913e-05
13 *156:16 8.1913e-05

*RES
1 *156:17 *669:Q 1.4
2 *156:16 *156:17 1.4
3 *156:15 *156:16 0.497155
4 *156:14 *156:15 1.4
5 *156:13 *156:14 1.36711
6 *156:11 *156:13 1.4
7 *156:10 *876:SI 1.4
8 *156:9 *156:11 0.99431
9 *156:8 *156:10 1.4
10 *156:7 *156:9 1.4
11 *156:6 *156:8 1.49146
12 *156:5 *156:7 0.124288
13 *156:5 *156:6 1.4
14 *156:4 *156:5 5.3444
15 *156:3 *156:4 1.4
16 *156:2 *156:3 0.124289
17 *156:1 *156:2 1.4
18 *872:D *156:1 1.4
*END

*D_NET *157 0.00376366

*CONN
*I *723:A I *C 88.595 52.635 *L 0.00263 *D NOR2X1
*I *762:A I *C 91.205 54.665 *L 0.00273 *D CLKINVX1
*I *773:B I *C 91.785 52.345 *L 0.00165 *D NOR3BXL
*I *701:B0 I *C 98.455 52.635 *L 0.0028 *D OAI21X1
*I *917:Q O *C 102.805 47.415 *L 0 *D SDFFRHQX4
*I *944:SI I *C 102.515 54.665 *L 0.00268 *D SDFFRHQX4

*CAP
1 *157:1 4.37057e-05
2 *157:2 4.37057e-05
3 *157:3 0.000182228
4 *157:4 0.000182228
5 *157:5 0.000131117
6 *157:6 0.000109264
7 *157:7 2.18528e-05
8 *157:9 4.04951e-05
9 *157:10 0.000506189
10 *157:11 0.000647922
11 *157:12 4.37057e-05
12 *157:13 0.000202476
13 *157:14 2.18528e-05
14 *157:15 4.37057e-05
15 *157:16 2.02476e-05
16 *157:17 0.000420912
17 *157:18 2.18528e-05
18 *157:20 0.000131117
19 *157:21 0.000420912
20 *157:23 0.000131117
21 *157:24 0.000117539
22 *157:25 8.09903e-05
23 *157:26 0.000117539
24 *157:27 8.09903e-05

*RES
1 *157:29 *944:SI 1.4
2 *157:28 *917:Q 1.4
3 *157:27 *157:29 1.4
4 *157:26 *157:28 1.4
5 *157:25 *157:27 0.497155
6 *157:24 *157:26 0.745733
7 *157:23 *157:25 1.4
8 *157:21 *157:24 1.4
9 *157:20 *157:23 0.745733
10 *157:18 *701:B0 1.4
11 *157:17 *157:21 2.36139
12 *157:16 *157:20 1.4
13 *157:15 *773:B 1.4
14 *157:14 *157:18 0.124289
15 *157:13 *157:17 1.4
16 *157:13 *157:16 0.124289
17 *157:12 *157:15 0.248578
18 *157:11 *157:14 1.4
19 *157:11 *157:13 1.1186
20 *157:10 *157:12 1.4
21 *157:10 *157:11 2.85864
22 *157:9 *157:10 0.248578
23 *157:7 *157:9 1.4
24 *157:6 *762:A 1.4
25 *157:5 *157:7 0.124289
26 *157:5 *157:6 0.621444
27 *157:4 *157:5 1.4
28 *157:3 *157:4 1.1186
29 *157:2 *157:3 1.4
30 *157:1 *157:2 0.248578
31 *723:A *157:1 1.4
*END

*D_NET *158 0.0065054

*CONN
*I *694:A0 I *C 82.795 54.955 *L 0.00261 *D AOI31X1
*I *698:A0 I *C 95.265 52.635 *L 0.00265 *D AOI21X1
*I *761:A I *C 85.405 49.445 *L 0.00273 *D CLKINVX1
*I *701:A0 I *C 99.325 52.635 *L 0.00271 *D OAI21X1
*I *947:Q O *C 112.375 42.195 *L 0 *D SDFFRHQX4
*I *917:SI I *C 112.665 47.415 *L 0.00268 *D SDFFRHQX4

*CAP
1 *158:1 2.18528e-05
2 *158:2 2.18528e-05
3 *158:3 0.000161981
4 *158:4 0.000161981
5 *158:5 0.000196675
6 *158:6 0.000196675
7 *158:7 2.02476e-05
8 *158:8 0.000708665
9 *158:9 0.000971883
10 *158:10 0.000243668
11 *158:11 0.000283466
12 *158:13 0.000243668
13 *158:14 0.000354662
14 *158:18 0.000354662
15 *158:19 0.000863484
16 *158:20 0.000863484
17 *158:21 3.99315e-05
18 *158:22 0.000399315
19 *158:23 1.89332e-05
20 *158:24 0.000359383
21 *158:25 1.89332e-05

*RES
1 *158:27 *917:SI 1.4
2 *158:25 *158:27 1.4
3 *158:24 *947:Q 1.4
4 *158:23 *158:25 0.124283
5 *158:22 *158:24 2.23709
6 *158:22 *158:23 1.4
7 *158:21 *158:22 0.248565
8 *158:20 *158:21 1.4
9 *158:19 *158:20 5.59284
10 *158:18 *158:19 1.4
11 *158:14 *158:18 1.98853
12 *158:14 *701:A0 1.4
13 *158:13 *761:A 1.4
14 *158:12 *698:A0 1.4
15 *158:11 *158:14 1.4
16 *158:10 *158:13 1.36712
17 *158:9 *158:12 1.4
18 *158:9 *158:11 1.74004
19 *158:8 *158:10 1.4
20 *158:8 *158:9 4.22582
21 *158:7 *158:8 0.124289
22 *158:6 *158:7 1.4
23 *158:5 *158:6 1.1186
24 *158:4 *158:5 1.4
25 *158:3 *158:4 0.99431
26 *158:2 *158:3 1.4
27 *158:1 *158:2 0.124289
28 *694:A0 *158:1 1.4
*END

*D_NET *159 0.0047509

*CONN
*I *704:A I *C 87.145 39.005 *L 0.00162 *D NOR2XL
*I *711:A I *C 88.305 42.195 *L 0.00263 *D NOR2X1
*I *727:A I *C 96.425 42.195 *L 0.00267 *D NAND2X1
*I *710:A I *C 88.885 44.515 *L 0.00157 *D NAND2XL
*I *947:SI I *C 102.515 42.195 *L 0.00268 *D SDFFRHQX4
*I *706:B0 I *C 91.205 47.415 *L 0.00272 *D OAI32X1
*I *915:Q O *C 102.805 36.975 *L 0 *D SDFFRHQX4

*CAP
1 *159:2 3.91796e-05
2 *159:3 3.91796e-05
3 *159:4 0.000244187
4 *159:5 0.000244187
5 *159:6 3.91796e-05
6 *159:7 7.83592e-05
7 *159:8 0.000548514
8 *159:10 0.000803181
9 *159:11 0.00017759
10 *159:13 0.000411386
11 *159:15 0.000399578
12 *159:16 0.000117539
13 *159:17 0.000399578
14 *159:19 0.000221988
15 *159:22 0.000399578
16 *159:23 0.000156718
17 *159:25 0.000137129
18 *159:26 0.000156718
19 *159:27 0.000137129

*RES
1 *159:29 *915:Q 1.4
2 *159:28 *706:B0 1.4
3 *159:27 *159:29 1.4
4 *159:26 *159:28 1.4
5 *159:25 *159:27 0.870021
6 *159:23 *159:26 0.99431
7 *159:22 *159:25 1.4
8 *159:21 *947:SI 1.4
9 *159:19 *159:23 1.4
10 *159:17 *159:22 2.23709
11 *159:16 *159:21 1.4
12 *159:15 *710:A 1.4
13 *159:15 *159:19 1.24283
14 *159:14 *727:A 1.4
15 *159:13 *159:17 1.4
16 *159:13 *159:16 0.745733
17 *159:11 *159:15 0.994261
18 *159:10 *159:14 1.4
19 *159:10 *159:13 1.86433
20 *159:9 *711:A 1.4
21 *159:8 *159:11 1.4
22 *159:8 *159:10 3.23151
23 *159:7 *159:9 1.4
24 *159:7 *159:8 0.248578
25 *159:6 *159:7 0.248578
26 *159:5 *159:6 1.4
27 *159:4 *159:5 1.36711
28 *159:3 *159:4 1.4
29 *159:2 *159:3 0.248578
30 *159:1 *159:2 1.4
31 *704:A *159:1 1.4
*END

*D_NET *160 0.00535415

*CONN
*I *709:A0N I *C 96.425 47.415 *L 0.00173 *D OAI2BB1X1
*I *706:A0 I *C 92.945 47.125 *L 0.00257 *D OAI32X1
*I *717:AN I *C 91.495 41.905 *L 0.00174 *D NOR2BX1
*I *764:B I *C 90.915 39.005 *L 0.00175 *D NOR2BXL
*I *919:SI I *C 102.515 33.785 *L 0.00268 *D SDFFRHQX4
*I *914:Q O *C 102.805 28.565 *L 0 *D SDFFRHQX4

*CAP
1 *160:2 0.000235077
2 *160:3 0.000235077
3 *160:4 2.21988e-05
4 *160:5 0.00035518
5 *160:7 0.000332982
6 *160:8 7.83592e-05
7 *160:9 7.83592e-05
8 *160:10 6.65963e-05
9 *160:11 0.000288584
10 *160:12 1.95898e-05
11 *160:13 0.000532771
12 *160:14 1.95898e-05
13 *160:15 5.87694e-05
14 *160:16 0.000310783
15 *160:18 5.87694e-05
16 *160:19 0.000626873
17 *160:22 0.000626873
18 *160:24 8.87951e-05
19 *160:25 0.000488373
20 *160:26 9.79489e-05
21 *160:27 0.000399578
22 *160:28 9.79489e-05
23 *160:29 0.000117539
24 *160:31 0.000117539

*RES
1 *160:33 *914:Q 1.4
2 *160:31 *160:33 1.4
3 *160:30 *919:SI 1.4
4 *160:29 *160:31 0.745733
5 *160:28 *160:30 1.4
6 *160:27 *160:29 1.4
7 *160:26 *160:28 0.621444
8 *160:25 *160:27 2.23709
9 *160:25 *160:26 1.4
10 *160:24 *160:25 0.497131
11 *160:22 *160:24 1.4
12 *160:21 *764:B 1.4
13 *160:19 *160:22 3.97724
14 *160:18 *160:21 1.4
15 *160:17 *717:AN 1.4
16 *160:16 *160:19 1.4
17 *160:15 *160:18 0.372866
18 *160:14 *160:17 1.4
19 *160:13 *160:16 1.73996
20 *160:13 *160:15 1.4
21 *160:12 *160:14 0.124289
22 *160:11 *160:13 1.24283
23 *160:11 *160:12 1.4
24 *160:10 *160:11 0.372848
25 *160:9 *160:10 1.4
26 *160:8 *160:9 0.497155
27 *160:7 *160:8 1.4
28 *160:5 *160:7 1.86424
29 *160:5 *706:A0 1.4
30 *160:4 *160:5 0.124283
31 *160:3 *160:4 1.4
32 *160:2 *160:3 1.49147
33 *160:1 *160:2 1.4
34 *709:A0N *160:1 1.4
*END

*D_NET *161 0.00698092

*CONN
*I *914:SI I *C 112.665 28.565 *L 0.00268 *D SDFFRHQX4
*I *728:A I *C 111.215 39.295 *L 0.00157 *D NAND2XL
*I *720:A0 I *C 106.865 39.005 *L 0.00271 *D OAI21X1
*I *769:B0 I *C 95.265 39.005 *L 0.00175 *D AO21X1
*I *712:A0 I *C 94.105 34.075 *L 0.00262 *D OAI221X1
*I *722:A0 I *C 93.815 36.685 *L 0.00259 *D AOI32X1
*I *913:Q O *C 98.745 23.345 *L 0 *D SDFFRHQX4

*CAP
1 *161:1 0.000718767
2 *161:2 0.000718767
3 *161:3 9.4666e-05
4 *161:4 0.000378664
5 *161:5 1.99657e-05
6 *161:6 0.00106201
7 *161:7 1.99657e-05
8 *161:9 0.00085637
9 *161:13 7.83592e-05
10 *161:15 0.00017759
11 *161:16 0.000377379
12 *161:17 1.95898e-05
13 *161:18 0.000979863
14 *161:19 1.95898e-05
15 *161:21 0.000780074
16 *161:23 0.000319696
17 *161:25 0.000319696
18 *161:26 1.99539e-05
19 *161:27 1.99539e-05

*RES
1 *161:27 *913:Q 1.4
2 *161:26 *161:27 0.124283
3 *161:25 *161:26 1.4
4 *161:23 *161:25 1.98853
5 *161:22 *722:A0 1.4
6 *161:21 *161:23 1.4
7 *161:19 *161:22 1.4
8 *161:18 *161:21 4.47418
9 *161:18 *712:A0 1.4
10 *161:17 *161:19 0.124289
11 *161:16 *161:18 1.11854
12 *161:16 *161:17 1.4
13 *161:15 *161:16 0.994261
14 *161:13 *161:15 1.4
15 *161:12 *769:B0 1.4
16 *161:9 *161:13 0.497155
17 *161:9 *161:12 1.4
18 *161:8 *720:A0 1.4
19 *161:7 *728:A 1.4
20 *161:6 *161:9 4.9715
21 *161:6 *161:8 1.4
22 *161:5 *161:7 0.124283
23 *161:4 *161:6 1.86425
24 *161:4 *161:5 1.4
25 *161:3 *161:4 0.621416
26 *161:2 *161:3 1.4
27 *161:1 *161:2 4.47418
28 *914:SI *161:1 1.4
*END

*D_NET *162 0.0061207

*CONN
*I *770:AN I *C 99.035 42.195 *L 0.00178 *D NAND2BX1
*I *769:A0 I *C 94.395 39.005 *L 0.00155 *D AO21X1
*I *722:A1 I *C 94.105 37.265 *L 0.00274 *D AOI32X1
*I *721:A0 I *C 97.005 33.785 *L 0.00158 *D AOI21XL
*I *712:B0 I *C 92.655 34.075 *L 0.00274 *D OAI221X1
*I *913:SI I *C 108.605 23.345 *L 0.00268 *D SDFFRHQX4
*I *912:Q O *C 99.035 21.315 *L 0 *D SDFFRHQX4

*CAP
1 *162:1 2.21988e-05
2 *162:2 2.21988e-05
3 *162:3 0.000313437
4 *162:4 0.000313437
5 *162:5 0.000266385
6 *162:6 0.000399578
7 *162:8 0.000377379
8 *162:9 1.95898e-05
9 *162:10 0.000266385
10 *162:11 1.95898e-05
11 *162:12 0.000176308
12 *162:13 2.21988e-05
13 *162:15 0.000254667
14 *162:16 0.000117539
15 *162:18 7.83592e-05
16 *162:19 2.21988e-05
17 *162:20 0.000117539
18 *162:21 0.000800028
19 *162:22 2.21988e-05
20 *162:23 2.21988e-05
21 *162:24 0.000800028
22 *162:26 2.21988e-05
23 *162:27 5.99431e-05
24 *162:29 0.000682855
25 *162:30 0.000622912
26 *162:31 0.000139677
27 *162:33 0.000139677

*RES
1 *162:33 *912:Q 1.4
2 *162:32 *913:SI 1.4
3 *162:31 *162:33 0.869979
4 *162:30 *162:32 1.4
5 *162:29 *162:31 1.4
6 *162:29 *162:30 4.10134
7 *162:27 *162:29 0.372849
8 *162:26 *712:B0 1.4
9 *162:24 *162:27 1.4
10 *162:23 *162:26 0.124283
11 *162:22 *721:A0 1.4
12 *162:21 *162:24 4.59846
13 *162:20 *162:23 1.4
14 *162:19 *162:22 0.124283
15 *162:18 *162:21 1.4
16 *162:16 *162:20 0.745733
17 *162:15 *162:19 1.4
18 *162:15 *162:18 0.497155
19 *162:14 *722:A1 1.4
20 *162:13 *162:16 1.4
21 *162:12 *162:15 1.1186
22 *162:11 *162:14 1.4
23 *162:10 *162:13 0.124283
24 *162:10 *162:12 1.4
25 *162:9 *162:11 0.124289
26 *162:8 *162:10 1.36711
27 *162:8 *162:9 1.4
28 *162:6 *162:8 0.745696
29 *162:6 *769:A0 1.4
30 *162:5 *162:6 1.49139
31 *162:4 *162:5 1.4
32 *162:3 *162:4 1.98862
33 *162:2 *162:3 1.4
34 *162:1 *162:2 0.124283
35 *770:AN *162:1 1.4
*END

*D_NET *163 0.00250787

*CONN
*I *753:A I *C 104.835 31.755 *L 0.00162 *D NOR2XL
*I *752:B I *C 108.025 31.465 *L 0.00167 *D NAND2XL
*I *912:SI I *C 108.895 21.315 *L 0.00268 *D SDFFRHQX4
*I *911:Q O *C 108.605 18.125 *L 0 *D SDFFRHQX4

*CAP
1 *163:1 3.99315e-05
2 *163:2 3.99315e-05
3 *163:3 0.000208265
4 *163:4 0.000208265
5 *163:5 5.98972e-05
6 *163:6 0.00071227
7 *163:8 0.000652373
8 *163:9 5.23992e-05
9 *163:10 6.98657e-05
10 *163:11 1.74664e-05
11 *163:13 0.000188671
12 *163:15 0.000188671
13 *163:16 3.49328e-05
14 *163:17 3.49328e-05

*RES
1 *163:18 *911:Q 1.4
2 *163:17 *163:18 1.4
3 *163:16 *163:17 0.248565
4 *163:15 *163:16 1.4
5 *163:13 *163:15 1.36718
6 *163:12 *912:SI 1.4
7 *163:11 *163:13 1.4
8 *163:10 *163:12 1.4
9 *163:10 *163:11 0.124283
10 *163:9 *163:10 0.372848
11 *163:8 *163:9 1.4
12 *163:6 *163:8 4.34999
13 *163:6 *752:B 1.4
14 *163:5 *163:6 0.372848
15 *163:4 *163:5 1.4
16 *163:3 *163:4 1.36712
17 *163:2 *163:3 1.4
18 *163:1 *163:2 0.248565
19 *753:A *163:1 1.4
*END

*D_NET *164 0.00211203

*CONN
*I *742:A I *C 97.005 28.855 *L 0.0017 *D MXI2XL
*I *911:SI I *C 98.745 18.125 *L 0.00268 *D SDFFRHQX4
*I *910:Q O *C 98.745 16.095 *L 0 *D SDFFRHQX4
*I *756:A I *C 99.325 28.565 *L 0.00273 *D CLKINVX1

*CAP
1 *164:2 0.000117539
2 *164:3 0.000117539
3 *164:4 2.21988e-05
4 *164:5 0.000759619
5 *164:6 3.91796e-05
6 *164:7 0.000877098
7 *164:8 3.91796e-05
8 *164:10 0.000139677

*RES
1 *164:11 *756:A 1.4
2 *164:10 *910:Q 1.4
3 *164:8 *164:11 1.4
4 *164:7 *164:10 0.869979
5 *164:7 *911:SI 1.4
6 *164:6 *164:8 0.248578
7 *164:5 *164:7 4.47418
8 *164:5 *164:6 1.4
9 *164:4 *164:5 0.124283
10 *164:3 *164:4 1.4
11 *164:2 *164:3 0.745733
12 *164:1 *164:2 1.4
13 *742:A *164:1 1.4
*END

*D_NET *165 0.00724333

*CONN
*I *767:B I *C 90.335 65.395 *L 0.00272 *D NOR3BX1
*I *707:AN I *C 93.525 65.105 *L 0.00178 *D NAND2BX1
*I *729:A0 I *C 85.695 65.105 *L 0.00265 *D AOI21X1
*I *918:Q O *C 112.375 83.955 *L 0 *D SDFFRHQX4
*I *946:SI I *C 112.665 89.175 *L 0.00268 *D SDFFRHQX4

*CAP
1 *165:1 2.18528e-05
2 *165:2 2.18528e-05
3 *165:3 0.000546684
4 *165:4 0.000222723
5 *165:5 0.000323961
6 *165:6 0.0013309
7 *165:8 0.0013309
8 *165:11 0.00129042
9 *165:12 0.00129042
10 *165:13 7.51305e-05
11 *165:14 0.000413218
12 *165:15 0.000338087
13 *165:17 1.85971e-05
14 *165:18 1.85971e-05

*RES
1 *165:19 *946:SI 1.4
2 *165:18 *165:19 1.4
3 *165:17 *165:18 0.124283
4 *165:15 *165:17 1.4
5 *165:14 *918:Q 1.4
6 *165:14 *165:15 2.23719
7 *165:13 *165:14 0.497152
8 *165:12 *165:13 1.4
9 *165:11 *165:12 8.07862
10 *165:8 *165:11 1.4
11 *165:7 *729:A0 1.4
12 *165:6 *707:AN 1.4
13 *165:6 *165:8 7.58161
14 *165:5 *165:7 1.4
15 *165:4 *165:6 1.4
16 *165:3 *165:5 1.98862
17 *165:3 *165:4 1.36718
18 *165:2 *165:3 1.4
19 *165:1 *165:2 0.124289
20 *767:B *165:1 1.4
*END

*D_NET *166 0.00772455

*CONN
*I *741:A I *C 90.625 70.325 *L 0.00259 *D NOR3X1
*I *715:A I *C 95.265 68.585 *L 0.00152 *D NAND4XL
*I *714:A0 I *C 96.425 63.075 *L 0.00265 *D AOI21X1
*I *716:A I *C 101.645 65.105 *L 0.00273 *D NOR4X1
*I *758:A I *C 84.815 62.8475 *L 0.00163 *D INVXL
*I *923:Q O *C 102.515 78.735 *L 0 *D SDFFRHQX4
*I *918:SI I *C 102.515 83.955 *L 0.00268 *D SDFFRHQX4

*CAP
1 *166:2 6.07427e-05
2 *166:3 6.07427e-05
3 *166:4 0.000109264
4 *166:5 0.000109264
5 *166:6 0.000263218
6 *166:7 0.000303713
7 *166:8 4.04951e-05
8 *166:9 2.18528e-05
9 *166:10 0.000262234
10 *166:11 2.18528e-05
11 *166:12 0.000262234
12 *166:14 4.04951e-05
13 *166:15 0.000364456
14 *166:16 0.000364456
15 *166:17 0.000174823
16 *166:18 0.000874113
17 *166:19 4.04951e-05
18 *166:20 0.000196675
19 *166:21 0.000874113
20 *166:22 2.18528e-05
21 *166:24 2.18528e-05
22 *166:25 2.02476e-05
23 *166:26 2.18528e-05
24 *166:27 0.000809902
25 *166:28 2.02476e-05
26 *166:30 0.000809902
27 *166:31 0.000130911
28 *166:32 4.89805e-06
29 *166:33 0.000521791
30 *166:34 5.65159e-06
31 *166:35 0.00012464
32 *166:36 0.00039088
33 *166:37 7.53546e-07
34 *166:38 0.00012464
35 *166:39 0.00012464
36 *166:42 0.00012464

*RES
1 *166:44 *918:SI 1.4
2 *166:42 *166:44 1.4
3 *166:41 *923:Q 1.4
4 *166:39 *166:42 0.745733
5 *166:38 *166:41 1.4
6 *166:37 *758:A 1.4
7 *166:36 *166:39 1.4
8 *166:35 *166:38 0.745733
9 *166:34 *166:37 0.00428582
10 *166:33 *166:36 2.2372
11 *166:33 *166:35 1.4
12 *166:32 *166:34 0.0278578
13 *166:31 *166:33 0.745733
14 *166:30 *166:32 1.4
15 *166:28 *166:31 1.4
16 *166:27 *166:30 4.97155
17 *166:26 *716:A 1.4
18 *166:25 *166:28 0.124289
19 *166:24 *166:27 1.4
20 *166:22 *166:26 0.124289
21 *166:21 *166:25 1.4
22 *166:20 *166:24 0.124289
23 *166:20 *714:A0 1.4
24 *166:19 *166:22 1.4
25 *166:18 *166:21 4.97155
26 *166:17 *166:20 0.99431
27 *166:16 *166:19 0.248578
28 *166:16 *166:18 1.4
29 *166:15 *166:17 1.4
30 *166:15 *166:16 1.98862
31 *166:14 *166:15 0.248578
32 *166:12 *166:14 1.4
33 *166:11 *715:A 1.4
34 *166:10 *166:12 1.49147
35 *166:9 *166:11 0.124289
36 *166:8 *166:10 1.4
37 *166:7 *166:9 1.4
38 *166:7 *166:8 0.248578
39 *166:6 *166:7 1.61575
40 *166:5 *166:6 1.4
41 *166:4 *166:5 0.621444
42 *166:3 *166:4 1.4
43 *166:2 *166:3 0.372866
44 *166:1 *166:2 1.4
45 *741:A *166:1 1.4
*END

*D_NET *167 0.00858144

*CONN
*I *734:A I *C 99.615 57.855 *L 0.00259 *D NOR3X1
*I *713:A0 I *C 88.305 57.855 *L 0.00265 *D AOI21X1
*I *718:A I *C 88.305 63.075 *L 0.00259 *D NOR3X1
*I *733:A0 I *C 97.585 54.665 *L 0.00265 *D AOI21X1
*I *751:A I *C 101.065 70.325 *L 0.00267 *D NAND2X1
*I *741:C I *C 90.045 70.615 *L 0.00278 *D NOR3X1
*I *945:Q O *C 112.375 75.545 *L 0 *D SDFFRHQX4
*I *923:SI I *C 112.375 78.735 *L 0.00268 *D SDFFRHQX4

*CAP
1 *167:1 2.18528e-05
2 *167:2 2.18528e-05
3 *167:3 0.000121485
4 *167:4 0.000121485
5 *167:5 2.18528e-05
6 *167:6 0.000262234
7 *167:7 0.00066817
8 *167:8 0.000240381
9 *167:9 0.00066817
10 *167:10 2.02476e-05
11 *167:11 0.000393351
12 *167:12 2.02476e-05
13 *167:13 0.000939672
14 *167:16 0.000546321
15 *167:19 0.000121485
16 *167:20 0.000890893
17 *167:21 0.00151821
18 *167:22 2.18528e-05
19 *167:23 0.000748798
20 *167:25 2.18528e-05
21 *167:26 0.000346896
22 *167:29 0.000443256
23 *167:30 9.636e-05
24 *167:32 1.87619e-05
25 *167:33 1.87619e-05
26 *167:34 0.000114898
27 *167:35 0.000114898
28 *167:36 1.85971e-05
29 *167:37 1.85971e-05

*RES
1 *167:38 *923:SI 1.4
2 *167:37 *167:38 1.4
3 *167:36 *167:37 0.124283
4 *167:35 *167:36 1.4
5 *167:34 *167:35 0.745704
6 *167:33 *167:34 1.4
7 *167:32 *167:33 0.124283
8 *167:30 *167:32 1.4
9 *167:29 *945:Q 1.4
10 *167:29 *167:30 0.621413
11 *167:26 *167:29 2.23709
12 *167:25 *741:C 1.4
13 *167:24 *751:A 1.4
14 *167:23 *167:26 1.4
15 *167:22 *167:25 0.124289
16 *167:21 *167:24 1.4
17 *167:21 *167:23 4.84711
18 *167:20 *167:22 1.4
19 *167:20 *167:21 4.72297
20 *167:19 *167:20 0.745732
21 *167:16 *167:19 1.4
22 *167:15 *733:A0 1.4
23 *167:13 *718:A 1.4
24 *167:13 *167:16 3.10722
25 *167:12 *167:15 1.4
26 *167:11 *713:A0 1.4
27 *167:11 *167:13 2.2372
28 *167:10 *167:12 0.124289
29 *167:9 *167:11 1.4
30 *167:8 *167:10 1.4
31 *167:7 *167:9 4.10153
32 *167:6 *167:8 1.36718
33 *167:6 *167:7 1.4
34 *167:5 *167:6 0.124289
35 *167:4 *167:5 1.4
36 *167:3 *167:4 0.745732
37 *167:2 *167:3 1.4
38 *167:1 *167:2 0.124289
39 *734:A *167:1 1.4
*END

*D_NET *168 0.00724847

*CONN
*I *718:B I *C 88.015 63.075 *L 0.00272 *D NOR3X1
*I *763:A I *C 88.605 60.1125 *L 0.00163 *D INVXL
*I *732:S0 I *C 92.075 60.175 *L 0.00372 *D MXI2XL
*I *741:B I *C 90.335 70.325 *L 0.00272 *D NOR3X1
*I *766:B I *C 96.135 57.565 *L 0.00363 *D CLKXOR2X1
*I *745:A I *C 101.065 59.885 *L 0.00267 *D NAND2X1
*I *751:B I *C 101.355 70.035 *L 0.00284 *D NAND2X1
*I *922:Q O *C 102.805 73.515 *L 0 *D SDFFRHQX4
*I *945:SI I *C 102.515 75.545 *L 0.00268 *D SDFFRHQX4

*CAP
1 *168:2 4.04951e-05
2 *168:3 4.04951e-05
3 *168:4 0.00022305
4 *168:5 0.000241135
5 *168:6 7.53546e-07
6 *168:7 1.73316e-05
7 *168:9 0.000161981
8 *168:10 0.000242971
9 *168:11 8.09903e-05
10 *168:12 0.000786702
11 *168:13 2.18528e-05
12 *168:14 0.000786702
13 *168:15 2.18528e-05
14 *168:16 4.04951e-05
15 *168:17 0.000283466
16 *168:19 4.04951e-05
17 *168:20 0.000283466
18 *168:22 4.37057e-05
19 *168:24 0.000196675
20 *168:25 0.000344209
21 *168:26 0.00015297
22 *168:27 0.000364456
23 *168:29 2.02476e-05
24 *168:30 2.18528e-05
25 *168:31 0.000786702
26 *168:32 2.18528e-05
27 *168:33 0.00104894
28 *168:35 0.000415204
29 *168:37 0.000101238
30 *168:38 0.00015297
31 *168:39 0.000101238
32 *168:40 8.09903e-05
33 *168:42 8.09903e-05

*RES
1 *168:44 *945:SI 1.4
2 *168:42 *168:44 1.4
3 *168:41 *922:Q 1.4
4 *168:40 *168:42 0.497155
5 *168:39 *168:41 1.4
6 *168:38 *168:40 1.4
7 *168:37 *168:39 0.621444
8 *168:35 *168:38 0.870021
9 *168:35 *168:37 1.4
10 *168:33 *751:B 1.4
11 *168:33 *168:35 1.49147
12 *168:32 *745:A 1.4
13 *168:31 *168:33 4.4744
14 *168:30 *168:32 0.124289
15 *168:29 *168:31 1.4
16 *168:27 *168:30 1.4
17 *168:27 *168:29 0.124289
18 *168:26 *766:B 1.4
19 *168:25 *168:27 2.11291
20 *168:24 *168:26 0.870021
21 *168:24 *168:25 1.4
22 *168:22 *168:24 0.248578
23 *168:21 *741:B 1.4
24 *168:20 *168:22 1.4
25 *168:19 *168:21 1.4
26 *168:17 *168:20 1.74004
27 *168:16 *168:19 0.248578
28 *168:15 *732:S0 1.4
29 *168:15 *168:17 1.4
30 *168:14 *168:16 1.4
31 *168:13 *168:15 0.124289
32 *168:12 *168:14 4.4744
33 *168:11 *168:13 1.4
34 *168:10 *168:12 1.4
35 *168:10 *168:11 0.497155
36 *168:9 *168:10 0.99431
37 *168:7 *168:9 1.4
38 *168:6 *763:A 1.4
39 *168:5 *168:7 0.0985738
40 *168:5 *168:6 0.00428582
41 *168:4 *168:5 1.2686
42 *168:3 *168:4 1.4
43 *168:2 *168:3 0.248578
44 *168:1 *168:2 1.4
45 *718:B *168:1 1.4
*END

*D_NET *169 0.0066093

*CONN
*I *922:SI I *C 112.665 73.515 *L 0.00268 *D SDFFRHQX4
*I *757:A I *C 107.155 65.105 *L 0.00273 *D CLKINVX1
*I *746:A I *C 105.995 60.175 *L 0.00564 *D NOR2X2
*I *745:B I *C 101.355 59.595 *L 0.00284 *D NAND2X1
*I *730:A I *C 98.455 65.395 *L 0.00155 *D NAND3XL
*I *739:A I *C 96.135 60.175 *L 0.00157 *D NAND2XL
*I *921:Q O *C 102.805 68.295 *L 0 *D SDFFRHQX4
*I *715:B I *C 94.975 68.585 *L 0.00158 *D NAND4XL

*CAP
1 *169:1 1.9272e-05
2 *169:2 1.9272e-05
3 *169:3 0.000356475
4 *169:4 0.000356475
5 *169:5 0.00057816
6 *169:6 0.000905784
7 *169:8 0.000327624
8 *169:9 7.50475e-05
9 *169:10 0.000390837
10 *169:12 0.000518265
11 *169:14 4.37057e-05
12 *169:15 0.000202476
13 *169:16 4.37057e-05
14 *169:17 2.18528e-05
15 *169:19 0.000393351
16 *169:20 0.000568174
17 *169:21 0.000161981
18 *169:22 0.000240381
19 *169:24 0.000161981
20 *169:25 0.000303713
21 *169:26 4.37057e-05
22 *169:27 2.18528e-05
23 *169:28 0.000303713
24 *169:29 0.000242971
25 *169:30 2.18528e-05
26 *169:31 2.18528e-05
27 *169:32 0.000242971
28 *169:34 2.18528e-05

*RES
1 *169:35 *715:B 1.4
2 *169:34 *921:Q 1.4
3 *169:32 *169:35 1.4
4 *169:31 *169:34 0.124289
5 *169:30 *739:A 1.4
6 *169:29 *169:32 1.49146
7 *169:28 *169:31 1.4
8 *169:27 *169:30 0.124289
9 *169:26 *169:29 1.4
10 *169:25 *169:28 1.86433
11 *169:24 *169:27 1.4
12 *169:22 *169:26 0.248578
13 *169:22 *169:25 1.4
14 *169:21 *169:24 0.99431
15 *169:20 *730:A 1.4
16 *169:20 *169:22 1.1186
17 *169:19 *169:21 1.4
18 *169:19 *169:20 2.11291
19 *169:17 *169:19 0.124289
20 *169:16 *745:B 1.4
21 *169:15 *169:17 1.4
22 *169:14 *169:16 0.248578
23 *169:12 *169:15 1.24289
24 *169:12 *169:14 1.4
25 *169:11 *746:A 1.4
26 *169:10 *169:12 1.98859
27 *169:10 *169:11 1.4
28 *169:9 *169:10 0.497133
29 *169:8 *169:9 1.4
30 *169:6 *169:8 2.11281
31 *169:6 *757:A 1.4
32 *169:5 *169:6 3.72848
33 *169:4 *169:5 1.4
34 *169:3 *169:4 2.36138
35 *169:2 *169:3 1.4
36 *169:1 *169:2 0.124283
37 *922:SI *169:1 1.4
*END

*D_NET *170 0.00417989

*CONN
*I *921:SI I *C 112.665 68.295 *L 0.00268 *D SDFFRHQX4
*I *746:B I *C 106.285 60.465 *L 0.00542 *D NOR2X2
*I *754:A I *C 110.925 57.855 *L 0.0111 *D NAND2X4
*I *920:Q O *C 102.805 63.075 *L 0 *D SDFFRHQX4
*I *747:A I *C 105.995 52.635 *L 0.00263 *D NOR2X1

*CAP
1 *170:2 0.000112571
2 *170:3 0.000112571
3 *170:4 0.000520344
4 *170:5 0.000520344
5 *170:6 3.75237e-05
6 *170:7 0.00030019
7 *170:8 0.000173448
8 *170:9 0.000262666
9 *170:10 0.000173448
10 *170:11 0.00028908
11 *170:12 3.75237e-05
12 *170:13 0.000173448
13 *170:15 0.000115632
14 *170:16 3.75237e-05
15 *170:17 0.000233314
16 *170:18 1.87619e-05
17 *170:20 0.000233314
18 *170:21 1.87619e-05
19 *170:24 0.000404712
20 *170:26 0.000404712

*RES
1 *170:26 *747:A 1.4
2 *170:24 *170:26 2.60994
3 *170:23 *920:Q 1.4
4 *170:21 *170:24 1.4
5 *170:20 *170:23 1.4
6 *170:19 *754:A 1.4
7 *170:18 *170:21 0.124283
8 *170:17 *170:20 1.49143
9 *170:16 *170:19 1.4
10 *170:15 *170:18 1.4
11 *170:13 *170:17 1.4
12 *170:12 *170:16 0.248567
13 *170:11 *170:15 0.745696
14 *170:11 *746:B 1.4
15 *170:11 *170:13 1.11854
16 *170:10 *170:12 1.4
17 *170:9 *170:11 1.4
18 *170:8 *170:10 1.11854
19 *170:7 *170:9 1.73997
20 *170:7 *170:8 1.4
21 *170:6 *170:7 0.248567
22 *170:5 *170:6 1.4
23 *170:4 *170:5 3.35563
24 *170:3 *170:4 1.4
25 *170:2 *170:3 0.7457
26 *170:1 *170:2 1.4
27 *921:SI *170:1 1.4
*END

*D_NET *171 0.00592867

*CONN
*I *752:A I *C 107.445 31.465 *L 0.00157 *D NAND2XL
*I *747:B I *C 106.285 52.635 *L 0.0028 *D NOR2X1
*I *753:B I *C 104.545 31.465 *L 0.00171 *D NOR2XL
*I *754:B I *C 111.505 57.565 *L 0.011 *D NAND2X4
*I *759:A I *C 108.605 57.855 *L 0.00273 *D INVX1
*I *944:Q O *C 112.375 54.665 *L 0 *D SDFFRHQX4
*I *920:SI I *C 112.665 63.075 *L 0.00268 *D SDFFRHQX4

*CAP
1 *171:2 7.57328e-05
2 *171:3 0.000189332
3 *171:4 0.00145646
4 *171:5 0.000113599
5 *171:6 0.00178408
6 *171:8 0.000327624
7 *171:11 0.000150095
8 *171:12 0.000337714
9 *171:13 0.000243904
10 *171:14 1.9272e-05
11 *171:15 7.50475e-05
12 *171:17 1.9272e-05
13 *171:18 1.87619e-05
14 *171:19 0.00019272
15 *171:22 0.000366168
16 *171:23 0.00019272
17 *171:24 0.000366168

*RES
1 *171:24 *920:SI 1.4
2 *171:23 *944:Q 1.4
3 *171:22 *171:24 2.36137
4 *171:19 *171:23 1.24283
5 *171:18 *171:22 1.4
6 *171:17 *759:A 1.4
7 *171:16 *754:B 1.4
8 *171:15 *171:19 1.4
9 *171:15 *171:18 0.124283
10 *171:14 *171:17 0.124283
11 *171:13 *171:16 1.4
12 *171:13 *171:15 0.37285
13 *171:12 *171:14 1.4
14 *171:12 *171:13 1.24283
15 *171:11 *171:12 0.994266
16 *171:8 *171:11 1.4
17 *171:7 *753:B 1.4
18 *171:6 *747:B 1.4
19 *171:6 *171:8 2.11281
20 *171:5 *171:7 1.4
21 *171:4 *171:6 9.07264
22 *171:3 *171:5 0.7457
23 *171:3 *171:4 1.4
24 *171:2 *171:3 0.497133
25 *171:1 *171:2 1.4
26 *752:A *171:1 1.4
*END

*D_NET *172 0.00362118

*CONN
*I *726:A0 I *C 94.685 31.465 *L 0.00261 *D AOI31X1
*I *742:S0 I *C 96.135 28.855 *L 0.00372 *D MXI2XL
*I *725:A0 I *C 99.905 31.755 *L 0.00268 *D OAI31X1
*I *919:Q O *C 112.375 33.785 *L 0 *D SDFFRHQX4
*I *915:SI I *C 112.665 36.975 *L 0.00268 *D SDFFRHQX4

*CAP
1 *172:2 9.79489e-05
2 *172:3 9.79489e-05
3 *172:4 2.21988e-05
4 *172:5 0.000199789
5 *172:6 0.000254667
6 *172:7 0.00017759
7 *172:8 0.000254667
8 *172:10 4.43976e-05
9 *172:11 0.000155391
10 *172:12 0.000110994
11 *172:14 0.000824305
12 *172:15 0.000824305
13 *172:16 3.99315e-05
14 *172:17 0.000259555
15 *172:18 0.000219623
16 *172:20 1.89332e-05
17 *172:21 1.89332e-05

*RES
1 *172:22 *915:SI 1.4
2 *172:21 *172:22 1.4
3 *172:20 *172:21 0.124283
4 *172:18 *172:20 1.4
5 *172:17 *919:Q 1.4
6 *172:17 *172:18 1.36711
7 *172:16 *172:17 0.248565
8 *172:15 *172:16 1.4
9 *172:14 *172:15 5.34427
10 *172:12 *172:14 1.4
11 *172:11 *725:A0 1.4
12 *172:11 *172:12 0.621413
13 *172:10 *172:11 0.248565
14 *172:8 *172:10 1.4
15 *172:7 *742:S0 1.4
16 *172:6 *172:8 1.61575
17 *172:5 *172:7 0.994261
18 *172:5 *172:6 1.4
19 *172:4 *172:5 0.124283
20 *172:3 *172:4 1.4
21 *172:2 *172:3 0.621444
22 *172:1 *172:2 1.4
23 *726:A0 *172:1 1.4
*END

*D_NET *173 0.00605161

*CONN
*I *782:B0 I *C 43.065 91.205 *L 0.00282 *D OAI31X1
*I *819:A I *C 38.425 94.395 *L 0.00273 *D NOR4X1
*I *824:B I *C 36.105 96.715 *L 0.00167 *D NAND2XL
*I *906:D I *C 47.125 106.865 *L 0.00278 *D SDFFRHQX8
*I *777:Q O *C 49.735 99.905 *L 0 *D SDFFRHQX1
*I *774:SI I *C 52.345 96.715 *L 0.00272 *D SDFFRHQX2

*CAP
1 *173:2 6.92026e-05
2 *173:3 6.92026e-05
3 *173:4 0.000252797
4 *173:5 0.000252797
5 *173:6 0.000369081
6 *173:7 6.92026e-05
7 *173:8 0.000484418
8 *173:9 0.000321742
9 *173:11 0.00018454
10 *173:12 0.000321742
11 *173:14 0.000183852
12 *173:15 0.000322946
13 *173:16 0.000183852
14 *173:17 0.000322946
15 *173:19 0.000656764
16 *173:20 0.000633783
17 *173:21 2.29815e-05
18 *173:23 0.000207608
19 *173:24 0.000207608
20 *173:25 0.000229815
21 *173:26 0.000137889
22 *173:27 9.19262e-05
23 *173:29 0.000206602
24 *173:30 0.000206602
25 *173:31 2.0853e-05
26 *173:32 2.0853e-05

*RES
1 *173:32 *774:SI 1.4
2 *173:31 *173:32 0.124283
3 *173:30 *173:31 1.4
4 *173:29 *173:30 1.11855
5 *173:27 *173:29 1.4
6 *173:26 *777:Q 1.4
7 *173:25 *173:27 0.497155
8 *173:25 *173:26 0.745732
9 *173:24 *173:25 1.4
10 *173:23 *173:24 1.11855
11 *173:21 *173:23 1.4
12 *173:20 *906:D 1.4
13 *173:19 *173:21 0.124289
14 *173:19 *173:20 3.60437
15 *173:17 *173:19 1.4
16 *173:16 *824:B 1.4
17 *173:15 *173:17 1.73996
18 *173:14 *173:16 0.99431
19 *173:12 *173:15 1.4
20 *173:11 *173:14 1.4
21 *173:10 *819:A 1.4
22 *173:9 *173:12 1.74004
23 *173:8 *173:11 0.994264
24 *173:8 *173:10 1.4
25 *173:7 *173:9 1.4
26 *173:6 *173:8 1.61568
27 *173:6 *173:7 0.372849
28 *173:5 *173:6 1.4
29 *173:4 *173:5 1.36718
30 *173:3 *173:4 1.4
31 *173:2 *173:3 0.372849
32 *173:1 *173:2 1.4
33 *782:B0 *173:1 1.4
*END

*D_NET *174 0.00736827

*CONN
*I *819:B I *C 39.005 94.105 *L 0.00273 *D NOR4X1
*I *830:A I *C 45.385 96.425 *L 0.00273 *D CLKINVX1
*I *907:D I *C 41.325 104.835 *L 0.00278 *D SDFFRHQX8
*I *776:SI I *C 51.475 86.275 *L 0.00272 *D SDFFRHQX2
*I *791:A I *C 52.055 94.105 *L 0.0017 *D MXI2XL
*I *780:B I *C 48.87 93.765 *L 0.00164 *D MXI2XL
*I *774:Q O *C 60.755 97.005 *L 0 *D SDFFRHQX2

*CAP
1 *174:2 2.30675e-05
2 *174:3 2.30675e-05
3 *174:4 0.000137889
4 *174:5 0.000137889
5 *174:6 0.000230675
6 *174:7 0.000230675
7 *174:8 4.59631e-05
8 *174:9 0.00070666
9 *174:10 0.000253743
10 *174:11 0.000660697
11 *174:12 0.000553621
12 *174:13 5.96149e-05
13 *174:14 0.000299878
14 *174:16 5.96149e-05
15 *174:17 0.000160871
16 *174:20 0.000206834
17 *174:22 0.00018454
18 *174:23 4.59631e-05
19 *174:24 0.000230675
20 *174:25 2.30675e-05
21 *174:26 4.61351e-05
22 *174:27 0.000643483
23 *174:28 2.30675e-05
24 *174:29 2.29815e-05
25 *174:30 0.000643483
26 *174:31 3.96233e-06
27 *174:32 2.29815e-05
28 *174:34 4.35857e-06
29 *174:35 0.000632677
30 *174:37 3.96233e-07
31 *174:38 0.000632677
32 *174:40 0.00020853
33 *174:41 0.00020853

*RES
1 *174:41 *774:Q 1.4
2 *174:40 *174:41 1.24283
3 *174:38 *174:40 1.4
4 *174:37 *780:B 1.4
5 *174:35 *174:38 3.72866
6 *174:34 *174:37 0.00214291
7 *174:32 *791:A 1.4
8 *174:32 *174:35 1.4
9 *174:31 *174:34 0.0214291
10 *174:30 *776:SI 1.4
11 *174:29 *174:32 0.124289
12 *174:28 *174:31 1.4
13 *174:27 *174:30 3.48009
14 *174:26 *174:29 1.4
15 *174:25 *174:28 0.124283
16 *174:24 *174:27 1.4
17 *174:24 *174:26 0.248566
18 *174:23 *174:25 1.4
19 *174:22 *174:24 0.994264
20 *174:20 *174:23 0.248578
21 *174:20 *174:22 1.4
22 *174:19 *907:D 1.4
23 *174:17 *174:20 0.870021
24 *174:16 *174:19 1.4
25 *174:15 *830:A 1.4
26 *174:14 *174:17 1.4
27 *174:13 *174:16 0.372849
28 *174:12 *174:15 1.4
29 *174:12 *174:14 1.61568
30 *174:11 *174:13 1.4
31 *174:10 *174:12 1.36711
32 *174:9 *174:11 3.60437
33 *174:9 *174:10 1.4
34 *174:8 *174:9 0.248578
35 *174:7 *174:8 1.4
36 *174:6 *174:7 1.24283
37 *174:5 *174:6 1.4
38 *174:4 *174:5 0.745732
39 *174:3 *174:4 1.4
40 *174:2 *174:3 0.124283
41 *174:1 *174:2 1.4
42 *819:B *174:1 1.4
*END

*D_NET *175 0.0126284

*CONN
*I *823:B I *C 39.005 96.715 *L 0.00167 *D NAND2XL
*I *819:C I *C 39.585 94.105 *L 0.00274 *D NOR4X1
*I *799:A I *C 41.325 88.885 *L 0.00157 *D NAND2XL
*I *783:A0 I *C 44.225 86.275 *L 0.00267 *D OAI211X1
*I *787:A I *C 48.285 83.665 *L 0.00157 *D NAND2XL
*I *776:Q O *C 59.885 86.565 *L 0 *D SDFFRHQX2
*I *607:SI I *C 59.015 73.225 *L 0.00276 *D SDFFRHQX1
*I *805:A I *C 55.535 91.205 *L 0.00263 *D NOR2X1
*I *802:A0 I *C 53.505 89.175 *L 0.00265 *D AOI21X1
*I *899:D I *C 53.215 110.055 *L 0.00278 *D SDFFRHQX8

*CAP
1 *175:1 0.000206834
2 *175:2 0.000206834
3 *175:3 4.61351e-05
4 *175:4 0.000299878
5 *175:5 0.000253743
6 *175:7 0.000413668
7 *175:9 0.00059752
8 *175:10 0.000115338
9 *175:11 0.000183852
10 *175:12 0.000115338
11 *175:13 0.000115338
12 *175:15 0.000253743
13 *175:17 0.000138405
14 *175:18 2.29815e-05
15 *175:19 0.000275778
16 *175:20 2.29815e-05
17 *175:21 0.000275778
18 *175:23 0.00018454
19 *175:24 0.000415216
20 *175:25 0.000230675
21 *175:26 4.59631e-05
22 *175:27 0.000275778
23 *175:28 4.59631e-05
24 *175:29 0.000643483
25 *175:31 0.000575546
26 *175:32 0.000367705
27 *175:33 0.000638713
28 *175:34 9.12643e-05
29 *175:35 6.31671e-05
30 *175:36 0.000963061
31 *175:37 0.000175487
32 *175:39 0.000963061
33 *175:40 0.000231613
34 *175:41 0.0013136
35 *175:44 0.00014739
36 *175:45 0.000145971
37 *175:46 0.0013136
38 *175:48 0.000145971
39 *175:49 5.32333e-05
40 *175:52 5.32333e-05

*RES
1 *175:53 *899:D 1.4
2 *175:52 *175:53 1.4
3 *175:49 *175:52 0.372851
4 *175:48 *802:A0 1.4
5 *175:47 *805:A 1.4
6 *175:46 *175:49 1.4
7 *175:45 *175:48 0.869982
8 *175:44 *175:47 1.4
9 *175:41 *175:46 8.07851
10 *175:40 *175:45 1.4
11 *175:40 *175:44 0.870021
12 *175:39 *607:SI 1.4
13 *175:38 *776:Q 1.4
14 *175:37 *175:41 1.4
15 *175:37 *175:40 0.497155
16 *175:36 *175:39 5.71702
17 *175:35 *175:38 1.4
18 *175:34 *175:37 0.497135
19 *175:33 *175:36 1.4
20 *175:33 *175:35 0.372866
21 *175:32 *175:34 1.4
22 *175:31 *175:33 3.35578
23 *175:29 *175:32 1.98862
24 *175:29 *175:31 1.4
25 *175:28 *787:A 1.4
26 *175:27 *175:29 1.49146
27 *175:26 *175:28 0.248578
28 *175:25 *175:27 1.4
29 *175:24 *175:26 1.4
30 *175:24 *175:25 1.24283
31 *175:23 *175:24 0.994264
32 *175:21 *175:23 1.4
33 *175:20 *783:A0 1.4
34 *175:19 *175:21 1.49146
35 *175:18 *175:20 0.124289
36 *175:17 *175:19 1.4
37 *175:15 *175:18 1.4
38 *175:15 *175:17 0.745698
39 *175:14 *799:A 1.4
40 *175:13 *175:15 0.621415
41 *175:12 *175:14 1.4
42 *175:11 *175:13 1.4
43 *175:10 *175:12 0.621415
44 *175:9 *175:11 0.99431
45 *175:9 *175:10 1.4
46 *175:7 *175:9 2.2372
47 *175:6 *819:C 1.4
48 *175:5 *175:7 1.4
49 *175:4 *175:6 1.4
50 *175:4 *175:5 1.36711
51 *175:3 *175:4 0.248566
52 *175:2 *175:3 1.4
53 *175:1 *175:2 1.1186
54 *823:B *175:1 1.4
*END

*D_NET *176 0.00552909

*CONN
*I *900:D I *C 41.035 101.645 *L 0.00278 *D SDFFRHQX8
*I *819:D I *C 39.875 94.105 *L 0.00283 *D NOR4X1
*I *823:A I *C 39.585 96.715 *L 0.00157 *D NAND2XL
*I *796:B I *C 41.03 81.395 *L 0.00164 *D MXI2XL
*I *832:A I *C 42.195 78.735 *L 0.00273 *D CLKINVX1
*I *781:Q O *C 40.165 76.125 *L 0 *D SDFFRHQX2
*I *788:SI I *C 37.555 75.835 *L 0.00272 *D SDFFRHQX2

*CAP
1 *176:2 9.22702e-05
2 *176:3 9.22702e-05
3 *176:4 0.000390686
4 *176:5 0.00059752
5 *176:6 2.30675e-05
6 *176:7 0.00119504
7 *176:8 2.30675e-05
8 *176:10 0.000988206
9 *176:12 9.22702e-05
10 *176:14 0.000207608
11 *176:15 0.000115338
12 *176:16 1.90192e-05
13 *176:17 0.000229815
14 *176:18 1.94154e-05
15 *176:19 0.000402707
16 *176:20 3.96233e-07
17 *176:21 2.30675e-05
18 *176:22 0.000172892
19 *176:24 2.30675e-05
20 *176:25 0.000173221
21 *176:27 0.000173221
22 *176:29 2.12953e-05
23 *176:30 2.12953e-05
24 *176:31 0.000194873
25 *176:33 0.000194873
26 *176:34 2.12953e-05
27 *176:35 2.12953e-05

*RES
1 *176:35 *788:SI 1.4
2 *176:34 *176:35 0.124283
3 *176:33 *176:34 1.4
4 *176:31 *176:33 1.1186
5 *176:30 *781:Q 1.4
6 *176:30 *176:31 1.4
7 *176:29 *176:30 0.124283
8 *176:27 *176:29 1.4
9 *176:26 *832:A 1.4
10 *176:25 *176:27 0.99431
11 *176:24 *176:26 1.4
12 *176:22 *176:25 1.4
13 *176:21 *176:24 0.124283
14 *176:20 *796:B 1.4
15 *176:19 *176:22 0.99427
16 *176:19 *176:21 1.4
17 *176:18 *176:20 0.00214291
18 *176:17 *176:19 1.24289
19 *176:16 *176:18 0.10286
20 *176:15 *176:17 1.4
21 *176:14 *176:16 1.4
22 *176:14 *176:15 0.621415
23 *176:12 *176:14 0.497132
24 *176:11 *823:A 1.4
25 *176:10 *176:12 1.4
26 *176:8 *176:11 1.4
27 *176:7 *176:10 5.34442
28 *176:7 *819:D 1.4
29 *176:6 *176:8 0.124283
30 *176:5 *176:7 1.1186
31 *176:5 *176:6 1.4
32 *176:4 *176:5 2.11291
33 *176:3 *176:4 1.4
34 *176:2 *176:3 0.497132
35 *176:1 *176:2 1.4
36 *900:D *176:1 1.4
*END

*D_NET *177 0.00870999

*CONN
*I *902:D I *C 30.595 106.865 *L 0.00278 *D SDFFRHQX8
*I *786:SI I *C 34.655 86.275 *L 0.00272 *D SDFFRHQX2
*I *824:A I *C 35.525 96.715 *L 0.00157 *D NAND2XL
*I *807:A I *C 32.335 81.055 *L 0.0017 *D MXI2XL
*I *828:A I *C 35.815 78.735 *L 0.00273 *D CLKINVX1
*I *809:A I *C 37.265 80.765 *L 0.00267 *D NAND2X1
*I *804:A0 I *C 27.695 83.955 *L 0.00265 *D AOI21X1
*I *788:Q O *C 29.145 76.125 *L 0 *D SDFFRHQX2
*I *825:A I *C 25.375 83.955 *L 0.00162 *D NOR2XL

*CAP
1 *177:1 0.000679746
2 *177:2 0.000679746
3 *177:3 0.000322946
4 *177:4 0.000322946
5 *177:5 6.89446e-05
6 *177:6 0.000919262
7 *177:7 6.92026e-05
8 *177:8 0.00126398
9 *177:9 6.92026e-05
10 *177:11 0.000436649
11 *177:12 2.29815e-05
12 *177:13 0.00018454
13 *177:14 2.29815e-05
14 *177:15 2.29815e-05
15 *177:16 0.000530553
16 *177:17 9.22702e-05
17 *177:20 0.000369081
18 *177:21 0.000138405
19 *177:23 0.000252797
20 *177:24 2.30675e-05
21 *177:25 0.000115338
22 *177:26 0.000160871
23 *177:27 0.000252797
24 *177:28 0.00037804
25 *177:29 6.92026e-05
26 *177:30 0.000160871
27 *177:31 2.30675e-05
28 *177:32 0.00037804
29 *177:35 0.000198405
30 *177:36 0.000108263
31 *177:38 2.29815e-05
32 *177:39 0.000175338
33 *177:40 0.000108263
34 *177:41 2.29815e-05
35 *177:42 2.16208e-05
36 *177:45 2.16208e-05

*RES
1 *177:45 *825:A 1.4
2 *177:43 *788:Q 1.4
3 *177:42 *177:45 0.124283
4 *177:41 *804:A0 1.4
5 *177:40 *177:43 1.4
6 *177:39 *177:42 1.4
7 *177:38 *177:41 0.124289
8 *177:36 *177:40 0.621444
9 *177:35 *177:39 0.994264
10 *177:35 *177:38 1.4
11 *177:33 *809:A 1.4
12 *177:32 *177:36 1.4
13 *177:31 *177:35 0.124283
14 *177:30 *828:A 1.4
15 *177:29 *177:33 1.4
16 *177:28 *177:32 2.11286
17 *177:27 *177:31 1.4
18 *177:26 *177:30 0.870021
19 *177:25 *177:29 0.372849
20 *177:24 *177:28 1.4
21 *177:23 *177:27 1.36718
22 *177:21 *177:26 1.4
23 *177:21 *177:25 0.248566
24 *177:20 *177:24 0.124283
25 *177:20 *177:23 1.4
26 *177:19 *807:A 1.4
27 *177:17 *177:21 0.497132
28 *177:16 *177:20 1.86424
29 *177:16 *177:19 1.4
30 *177:15 *824:A 1.4
31 *177:14 *177:17 1.4
32 *177:13 *177:16 0.994264
33 *177:12 *177:15 0.124289
34 *177:11 *177:14 0.124289
35 *177:11 *177:13 1.4
36 *177:9 *177:12 1.4
37 *177:8 *177:11 2.2372
38 *177:8 *786:SI 1.4
39 *177:7 *177:9 0.372849
40 *177:6 *177:8 4.59868
41 *177:6 *177:7 1.4
42 *177:5 *177:6 0.372866
43 *177:4 *177:5 1.4
44 *177:3 *177:4 1.73996
45 *177:2 *177:3 1.4
46 *177:1 *177:2 3.85295
47 *902:D *177:1 1.4
*END

*D_NET *178 0.00687952

*CONN
*I *901:D I *C 28.565 112.085 *L 0.00278 *D SDFFRHQX8
*I *790:SI I *C 34.945 99.615 *L 0.00268 *D SDFFRHQX4
*I *786:Q O *C 26.245 86.565 *L 0 *D SDFFRHQX2
*I *816:B I *C 25.95 88.545 *L 0.00164 *D MXI2XL
*I *815:A I *C 23.055 88.885 *L 0.0017 *D MXI2XL
*I *825:B I *C 25.085 83.665 *L 0.00171 *D NOR2XL
*I *829:A I *C 22.765 83.955 *L 0.00273 *D CLKINVX1

*CAP
1 *178:2 3.97433e-05
2 *178:3 3.97433e-05
3 *178:4 0.000863334
4 *178:5 0.000886316
5 *178:6 4.61351e-05
6 *178:7 2.29815e-05
7 *178:8 4.61351e-05
8 *178:9 0.000553621
9 *178:10 0.000850317
10 *178:11 0.000553621
11 *178:12 0.000850317
12 *178:14 9.22702e-05
13 *178:16 0.000113497
14 *178:17 0.000206834
15 *178:18 0.000215091
16 *178:19 0.000344723
17 *178:20 4.69693e-05
18 *178:21 0.000193865
19 *178:23 0.000137889
20 *178:24 4.73421e-05
21 *178:25 2.16208e-05
22 *178:26 7.93863e-05
23 *178:27 3.72772e-07
24 *178:28 2.16208e-05
25 *178:29 7.93863e-05
26 *178:32 8.64832e-05
27 *178:33 8.64832e-05
28 *178:35 0.000155092
29 *178:36 0.000155092
30 *178:37 2.16208e-05
31 *178:38 2.16208e-05

*RES
1 *178:38 *829:A 1.4
2 *178:37 *178:38 0.124283
3 *178:36 *178:37 1.4
4 *178:35 *178:36 0.994266
5 *178:33 *178:35 1.4
6 *178:33 *825:B 1.4
7 *178:32 *178:33 0.497133
8 *178:29 *178:32 1.4
9 *178:28 *815:A 1.4
10 *178:27 *816:B 1.4
11 *178:26 *178:29 0.497133
12 *178:25 *178:28 0.124283
13 *178:24 *178:27 0.00214281
14 *178:23 *178:26 1.4
15 *178:21 *178:25 1.4
16 *178:20 *178:24 0.269995
17 *178:19 *178:23 0.745732
18 *178:19 *786:Q 1.4
19 *178:18 *178:21 1.24283
20 *178:18 *178:20 1.4
21 *178:17 *178:19 1.1186
22 *178:16 *178:18 0.124283
23 *178:16 *178:17 1.4
24 *178:14 *178:16 0.497132
25 *178:13 *790:SI 1.4
26 *178:12 *178:14 1.4
27 *178:11 *178:13 1.4
28 *178:10 *178:12 4.59868
29 *178:9 *178:11 2.98279
30 *178:8 *178:10 1.4
31 *178:7 *178:9 1.4
32 *178:6 *178:8 0.248566
33 *178:5 *178:7 0.124289
34 *178:5 *178:6 1.4
35 *178:4 *178:5 5.22011
36 *178:3 *178:4 1.4
37 *178:2 *178:3 0.248566
38 *178:1 *178:2 1.4
39 *901:D *178:1 1.4
*END

*D_NET *179 0.00587952

*CONN
*I *797:A I *C 28.855 94.105 *L 0.00157 *D NAND2XL
*I *826:B I *C 27.405 91.495 *L 0.00534 *D NAND2X2
*I *671:SI I *C 25.955 73.225 *L 0.00276 *D SDFFRHQX1
*I *827:B I *C 24.505 91.205 *L 0.0028 *D NOR2X1
*I *785:Q O *C 23.635 97.005 *L 0 *D SDFFRHQX2
*I *898:D I *C 25.085 101.645 *L 0.00278 *D SDFFRHQX8

*CAP
1 *179:1 2.29815e-05
2 *179:2 2.29815e-05
3 *179:3 0.000138405
4 *179:4 0.000138405
5 *179:5 0.000229815
6 *179:6 0.000275778
7 *179:7 2.30675e-05
8 *179:8 4.59631e-05
9 *179:9 2.30675e-05
10 *179:10 9.04296e-05
11 *179:12 0.000187362
12 *179:14 0.00133487
13 *179:15 0.000135705
14 *179:16 0.00133487
15 *179:17 2.16208e-05
16 *179:18 3.87729e-05
17 *179:20 2.16208e-05
18 *179:21 0.000454037
19 *179:23 0.000497278
20 *179:24 4.32416e-05
21 *179:25 1.93865e-05
22 *179:26 7.75458e-05
23 *179:27 1.93865e-05
24 *179:28 7.75458e-05
25 *179:30 0.000302691
26 *179:32 0.000302691

*RES
1 *179:32 *898:D 1.4
2 *179:30 *179:32 1.73996
3 *179:29 *785:Q 1.4
4 *179:28 *179:30 1.4
5 *179:27 *179:29 1.4
6 *179:26 *179:28 0.497133
7 *179:25 *179:27 0.124283
8 *179:24 *179:26 1.4
9 *179:23 *179:25 1.4
10 *179:23 *179:24 0.248566
11 *179:21 *179:23 2.60995
12 *179:20 *827:B 1.4
13 *179:18 *179:21 1.4
14 *179:17 *179:20 0.124283
15 *179:16 *671:SI 1.4
16 *179:15 *179:18 0.248566
17 *179:15 *179:17 1.4
18 *179:14 *179:16 7.58137
19 *179:12 *179:15 0.621416
20 *179:12 *179:14 1.4
21 *179:11 *826:B 1.4
22 *179:10 *179:12 0.497132
23 *179:9 *179:11 1.4
24 *179:8 *179:10 1.4
25 *179:7 *179:9 0.124283
26 *179:6 *179:8 0.248578
27 *179:6 *179:7 1.4
28 *179:5 *179:6 1.24289
29 *179:4 *179:5 1.4
30 *179:3 *179:4 0.745698
31 *179:2 *179:3 1.4
32 *179:1 *179:2 0.124289
33 *797:A *179:1 1.4
*END

*D_NET *180 0.00475661

*CONN
*I *827:A I *C 24.795 91.205 *L 0.00263 *D NOR2X1
*I *826:A I *C 26.825 91.205 *L 0.00547 *D NAND2X2
*I *785:SI I *C 32.045 96.715 *L 0.00272 *D SDFFRHQX2
*I *795:S0 I *C 32.915 94.105 *L 0.00372 *D MXI2XL
*I *790:Q O *C 25.085 99.615 *L 0 *D SDFFRHQX4
*I *904:D I *C 33.495 104.835 *L 0.00278 *D SDFFRHQX8

*CAP
1 *180:1 4.32416e-05
2 *180:2 4.32416e-05
3 *180:3 0.000144908
4 *180:4 0.000144908
5 *180:5 0.000436649
6 *180:6 0.000390686
7 *180:7 4.59631e-05
8 *180:8 2.30675e-05
9 *180:10 0.000415216
10 *180:11 0.000229815
11 *180:12 0.000461351
12 *180:13 0.000229815
13 *180:14 0.000115338
14 *180:16 0.000148589
15 *180:17 4.61351e-05
16 *180:18 0.000206834
17 *180:20 0.000148589
18 *180:21 0.000637716
19 *180:22 0.000206834
20 *180:24 0.000637716

*RES
1 *180:24 *904:D 1.4
2 *180:23 *790:Q 1.4
3 *180:22 *795:S0 1.4
4 *180:21 *180:24 3.48008
5 *180:20 *180:23 1.4
6 *180:18 *180:22 1.1186
7 *180:17 *180:21 1.4
8 *180:16 *180:20 0.869982
9 *180:15 *785:SI 1.4
10 *180:14 *180:18 1.4
11 *180:14 *180:17 0.248566
12 *180:13 *180:16 1.4
13 *180:12 *180:15 1.4
14 *180:12 *180:14 0.372849
15 *180:11 *180:13 1.24289
16 *180:10 *180:12 2.11281
17 *180:10 *180:11 1.4
18 *180:8 *180:10 0.124283
19 *180:7 *826:A 1.4
20 *180:6 *180:8 1.4
21 *180:5 *180:7 0.248578
22 *180:5 *180:6 2.11291
23 *180:4 *180:5 1.4
24 *180:3 *180:4 0.869982
25 *180:2 *180:3 1.4
26 *180:1 *180:2 0.248566
27 *827:A *180:1 1.4
*END

*D_NET *181 0.00226272

*CONN
*I *838:B0 I *C 107.445 99.615 *L 0.00278 *D AOI211X1
*I *837:A0 I *C 103.675 101.645 *L 0.00265 *D AOI21X1
*I *956:Q O *C 102.805 104.835 *L 0 *D SDFFRHQX4
*I *881:SI I *C 96.135 104.545 *L 0.00271 *D SDFFRHQX8

*CAP
1 *181:1 1.87826e-05
2 *181:2 1.87826e-05
3 *181:3 0.000247202
4 *181:4 0.000247202
5 *181:5 0.000130293
6 *181:6 0.000325733
7 *181:7 0.00019544
8 *181:9 6.232e-05
9 *181:10 6.232e-05
10 *181:11 2.0293e-05
11 *181:12 3.91634e-05
12 *181:13 1.88704e-05
13 *181:14 0.000438156
14 *181:16 0.000438156

*RES
1 *181:17 *881:SI 1.4
2 *181:16 *181:17 1.4
3 *181:14 *181:16 2.85864
4 *181:13 *956:Q 1.4
5 *181:12 *181:14 1.4
6 *181:12 *181:13 0.124289
7 *181:11 *181:12 0.124289
8 *181:10 *181:11 1.4
9 *181:9 *181:10 0.372866
10 *181:7 *181:9 1.4
11 *181:6 *837:A0 1.4
12 *181:6 *181:7 1.1186
13 *181:5 *181:6 0.745732
14 *181:4 *181:5 1.4
15 *181:3 *181:4 1.6157
16 *181:2 *181:3 1.4
17 *181:1 *181:2 0.124288
18 *838:B0 *181:1 1.4
*END

*D_NET *182 0.00270525

*CONN
*I *956:SI I *C 112.665 104.835 *L 0.00268 *D SDFFRHQX4
*I *838:C0 I *C 106.865 99.615 *L 0.00281 *D AOI211X1
*I *837:A1 I *C 103.385 101.645 *L 0.00278 *D AOI21X1
*I *958:Q O *C 102.805 96.425 *L 0 *D SDFFRHQX4

*CAP
1 *182:2 0.000240716
2 *182:3 0.000240716
3 *182:4 0.000183737
4 *182:5 0.000183737
5 *182:6 9.29853e-05
6 *182:7 0.000323767
7 *182:8 0.000150261
8 *182:9 0.000230782
9 *182:10 0.000150261
10 *182:11 2.17156e-05
11 *182:13 0.000412596
12 *182:15 0.00039088
13 *182:16 4.15467e-05
14 *182:17 4.15467e-05

*RES
1 *182:18 *958:Q 1.4
2 *182:17 *182:18 1.4
3 *182:16 *182:17 0.248578
4 *182:15 *182:16 1.4
5 *182:13 *182:15 2.2372
6 *182:13 *837:A1 1.4
7 *182:11 *182:13 0.124289
8 *182:10 *838:C0 1.4
9 *182:9 *182:11 1.4
10 *182:8 *182:10 0.994305
11 *182:7 *182:9 1.49142
12 *182:7 *182:8 1.4
13 *182:6 *182:7 0.621417
14 *182:5 *182:6 1.4
15 *182:4 *182:5 1.24288
16 *182:3 *182:4 1.4
17 *182:2 *182:3 1.86433
18 *182:1 *182:2 1.4
19 *956:SI *182:1 1.4
*END

*D_NET *183 0.00128035

*CONN
*I *838:A0 I *C 108.08 99.6275 *L 0.00263 *D AOI211X1
*I *957:Q O *C 112.375 94.395 *L 0 *D SDFFRHQX4
*I *958:SI I *C 112.665 96.425 *L 0.00268 *D SDFFRHQX4

*CAP
1 *183:1 3.56222e-06
2 *183:2 0.000136012
3 *183:3 0.00013245
4 *183:4 0.000278956
5 *183:5 0.000278956
6 *183:6 7.51305e-05
7 *183:7 0.000206609
8 *183:8 1.85971e-05
9 *183:9 0.000131478
10 *183:10 1.85971e-05

*RES
1 *183:12 *958:SI 1.4
2 *183:10 *183:12 1.4
3 *183:9 *957:Q 1.4
4 *183:8 *183:10 0.124283
5 *183:7 *183:9 0.870017
6 *183:7 *183:8 1.4
7 *183:6 *183:7 0.497152
8 *183:5 *183:6 1.4
9 *183:4 *183:5 1.86425
10 *183:3 *183:4 1.4
11 *183:2 *183:3 0.876446
12 *183:1 *183:2 0.0235719
13 *838:A0 *183:1 1.4
*END

*D_NET *184 0.00305069

*CONN
*I *838:A1 I *C 107.735 99.615 *L 0.00279 *D AOI211X1
*I *957:SI I *C 102.515 94.395 *L 0.00268 *D SDFFRHQX4
*I *946:Q O *C 102.805 89.175 *L 0 *D SDFFRHQX4

*CAP
1 *184:2 0.000473533
2 *184:3 0.000473533
3 *184:4 0.00039088
4 *184:5 0.00078176
5 *184:6 0.00012464
6 *184:7 0.00039088
7 *184:8 0.00012464
8 *184:9 0.000145413
9 *184:11 0.000145413

*RES
1 *184:13 *946:Q 1.4
2 *184:11 *184:13 1.4
3 *184:10 *957:SI 1.4
4 *184:9 *184:11 0.870021
5 *184:8 *184:10 1.4
6 *184:7 *184:9 1.4
7 *184:6 *184:8 0.745733
8 *184:5 *184:7 2.2372
9 *184:5 *184:6 1.4
10 *184:4 *184:5 2.2372
11 *184:3 *184:4 1.4
12 *184:2 *184:3 2.98287
13 *184:1 *184:2 1.4
14 *838:A1 *184:1 1.4
*END

*D_NET *185 0.00883279

*CONN
*I *852:A1 I *C 67.715 18.125 *L 0.00278 *D AOI21X1
*I *903:D I *C 62.495 65.105 *L 0.00278 *D SDFFRHQX8
*I *547:SI I *C 59.595 23.635 *L 0.00276 *D SDFFRHQX1
*I *843:Q O *C 57.855 21.605 *L 0 *D SDFFRHQX1

*CAP
1 *185:2 2.09534e-05
2 *185:3 2.09534e-05
3 *185:4 0.000319701
4 *185:5 0.000319701
5 *185:6 0.000398114
6 *185:7 0.000398114
7 *185:8 5.9944e-05
8 *185:9 0.0032025
9 *185:10 0.00314256
10 *185:11 0.000209534
11 *185:13 0.000335254
12 *185:15 0.00012572
13 *185:17 0.000139869
14 *185:18 0.000139869

*RES
1 *185:18 *843:Q 1.4
2 *185:17 *185:18 0.870021
3 *185:15 *185:17 1.4
4 *185:14 *547:SI 1.4
5 *185:13 *185:15 0.745733
6 *185:13 *185:14 1.4
7 *185:11 *185:13 1.24289
8 *185:10 *903:D 1.4
9 *185:9 *185:11 1.4
10 *185:9 *185:10 17.773
11 *185:8 *185:9 0.372866
12 *185:7 *185:8 1.4
13 *185:6 *185:7 2.36149
14 *185:5 *185:6 1.4
15 *185:4 *185:5 1.98862
16 *185:3 *185:4 1.4
17 *185:2 *185:3 0.124289
18 *185:1 *185:2 1.4
19 *852:A1 *185:1 1.4
*END

*D_NET *186 0.00958454

*CONN
*I *905:D I *C 65.105 59.885 *L 0.00278 *D SDFFRHQX8
*I *842:B1 I *C 55.245 18.125 *L 0.00164 *D AO22X1
*I *949:SI I *C 48.865 18.125 *L 0.00268 *D SDFFRHQX4
*I *841:Q O *C 45.675 21.605 *L 0 *D SDFFRHQX1

*CAP
1 *186:2 0.000685223
2 *186:3 0.000685223
3 *186:4 0.00314292
4 *186:5 0.0031629
5 *186:7 1.99813e-05
6 *186:8 0.000448623
7 *186:9 0.000667297
8 *186:10 1.9775e-05
9 *186:11 0.000218673
10 *186:12 1.9775e-05
11 *186:13 0.000257075
12 *186:15 0.000257075

*RES
1 *186:15 *841:Q 1.4
2 *186:13 *186:15 1.61568
3 *186:12 *949:SI 1.4
4 *186:11 *186:13 1.4
5 *186:10 *186:12 0.124283
6 *186:9 *186:11 1.36711
7 *186:9 *186:10 1.4
8 *186:8 *186:9 2.73429
9 *186:7 *186:8 1.4
10 *186:5 *186:7 0.124289
11 *186:5 *842:B1 1.4
12 *186:4 *186:5 17.8974
13 *186:3 *186:4 1.4
14 *186:2 *186:3 4.22563
15 *186:1 *186:2 1.4
16 *905:D *186:1 1.4
*END

*D_NET *187 0.0046093

*CONN
*I *523:D I *C 12.615 49.445 *L 0.00276 *D SDFFRHQX1
*I *615:SI I *C 21.895 36.685 *L 0.00276 *D SDFFRHQX1
*I *897:Q O *C 16.385 28.565 *L 0 *D SDFFRHQX4

*CAP
1 *187:1 0.000919263
2 *187:2 0.000919263
3 *187:3 0.00021609
4 *187:4 0.00021609
5 *187:5 4.48421e-05
6 *187:6 0.000695053
7 *187:7 0.000412535
8 *187:8 0.00065021
9 *187:9 0.000412535
10 *187:10 3.9289e-05
11 *187:11 2.24211e-05
12 *187:12 3.9289e-05
13 *187:13 2.24211e-05

*RES
1 *187:14 *897:Q 1.4
2 *187:13 *615:SI 1.4
3 *187:12 *187:14 1.4
4 *187:11 *187:13 0.124289
5 *187:10 *187:12 0.248578
6 *187:9 *187:11 1.4
7 *187:8 *187:10 1.4
8 *187:7 *187:9 2.61006
9 *187:6 *187:8 3.60437
10 *187:6 *187:7 1.4
11 *187:5 *187:6 0.248578
12 *187:4 *187:5 1.4
13 *187:3 *187:4 1.36718
14 *187:2 *187:3 1.4
15 *187:1 *187:2 5.09584
16 *523:D *187:1 1.4
*END

*D_NET *188 0.00244265

*CONN
*I *929:SI I *C 17.545 52.635 *L 0.00268 *D SDFFRHQX4
*I *876:D I *C 18.995 63.075 *L 0.00174 *D SDFFRX1
*I *523:Q O *C 19.575 49.155 *L 0 *D SDFFRHQX1

*CAP
1 *188:2 0.000101552
2 *188:3 0.000101552
3 *188:4 0.00108048
4 *188:5 0.000811261
5 *188:6 0.000269224
6 *188:8 3.9289e-05
7 *188:9 3.9289e-05

*RES
1 *188:10 *523:Q 1.4
2 *188:9 *188:10 1.4
3 *188:8 *188:9 0.248578
4 *188:6 *188:8 1.4
5 *188:5 *876:D 1.4
6 *188:4 *188:6 1.49146
7 *188:4 *188:5 4.47438
8 *188:3 *188:4 1.4
9 *188:2 *188:3 0.621444
10 *188:1 *188:2 1.4
11 *929:SI *188:1 1.4
*END

*D_NET *189 0.0117684

*CONN
*I *861:A I *C 58.145 88.885 *L 0.0208 *D CLKINVX8
*I *862:A I *C 5.365 65.395 *L 0.0208 *D CLKINVX8
*I *876:QN O *C 10.875 63.365 *L 0 *D SDFFRX1

*CAP
1 *189:2 0.00346735
2 *189:3 0.00346735
3 *189:4 0.00179197
4 *189:5 0.00179197
5 *189:6 4.0621e-05
6 *189:7 0.000446831
7 *189:8 0.000157745
8 *189:9 0.00040621
9 *189:10 0.000157745
10 *189:12 2.03105e-05
11 *189:14 2.03105e-05

*RES
1 *189:15 *876:QN 1.4
2 *189:14 *189:15 1.4
3 *189:12 *189:14 0.124289
4 *189:11 *862:A 1.4
5 *189:10 *189:12 1.4
6 *189:9 *189:11 1.4
7 *189:8 *189:10 0.870019
8 *189:7 *189:9 2.48577
9 *189:7 *189:8 1.4
10 *189:6 *189:7 0.248578
11 *189:5 *189:6 1.4
12 *189:4 *189:5 10.0672
13 *189:3 *189:4 1.4
14 *189:2 *189:3 19.8854
15 *189:1 *189:2 1.4
16 *861:A *189:1 1.4
*END

*D_NET *190 0.00305656

*CONN
*I *927:SI I *C 80.475 12.905 *L 0.00268 *D SDFFRHQX4
*I *563:B0 I *C 75.255 10.875 *L 0.00282 *D OAI31X1
*I *926:Q O *C 90.915 7.685 *L 0 *D SDFFRHQX4

*CAP
1 *190:2 1.9981e-05
2 *190:3 1.9981e-05
3 *190:4 0.000159631
4 *190:5 0.000159631
5 *190:6 3.99621e-05
6 *190:7 0.000389849
7 *190:8 0.000179585
8 *190:9 0.000349887
9 *190:10 0.000179585
10 *190:11 1.99813e-05
11 *190:12 0.000739298
12 *190:13 1.99813e-05
13 *190:14 0.000739298
14 *190:16 1.99539e-05
15 *190:17 1.99539e-05

*RES
1 *190:17 *926:Q 1.4
2 *190:16 *190:17 0.124283
3 *190:14 *190:16 1.4
4 *190:13 *563:B0 1.4
5 *190:12 *190:14 4.59848
6 *190:11 *190:13 0.124289
7 *190:10 *190:12 1.4
8 *190:9 *190:11 1.4
9 *190:8 *190:10 1.11854
10 *190:7 *190:9 2.11287
11 *190:7 *190:8 1.4
12 *190:6 *190:7 0.248566
13 *190:5 *190:6 1.4
14 *190:4 *190:5 0.994261
15 *190:3 *190:4 1.4
16 *190:2 *190:3 0.124283
17 *190:1 *190:2 1.4
18 *927:SI *190:1 1.4
*END

*D_NET *191 0.0058877

*CONN
*I *529:SI I *C 54.375 47.125 *L 0.00276 *D SDFFRHQX1
*I *550:A0N I *C 54.085 49.735 *L 0.00167 *D OAI2BB1XL
*I *546:Q O *C 49.445 52.925 *L 0 *D SDFFRHQX1
*I *959:D I *C 53.505 78.735 *L 0.00174 *D SDFFRX1

*CAP
1 *191:2 2.053e-05
2 *191:3 2.053e-05
3 *191:4 0.000339174
4 *191:5 0.000339174
5 *191:6 4.106e-05
6 *191:7 0.00016424
7 *191:8 0.000135669
8 *191:9 0.00012318
9 *191:10 0.000135669
10 *191:11 0.000109207
11 *191:13 0.00198424
12 *191:14 0.00187503
13 *191:15 0.000215776
14 *191:16 8.42228e-05
15 *191:17 0.000215776
16 *191:18 8.42228e-05

*RES
1 *191:20 *959:D 1.4
2 *191:19 *546:Q 1.4
3 *191:18 *191:20 1.4
4 *191:17 *191:19 1.4
5 *191:16 *191:18 0.497155
6 *191:15 *191:17 1.24288
7 *191:14 *191:16 1.4
8 *191:13 *191:15 1.4
9 *191:13 *191:14 11.0612
10 *191:11 *191:13 0.62143
11 *191:10 *550:A0N 1.4
12 *191:9 *191:11 1.4
13 *191:8 *191:10 0.745732
14 *191:7 *191:9 0.745699
15 *191:7 *191:8 1.4
16 *191:6 *191:7 0.248566
17 *191:5 *191:6 1.4
18 *191:4 *191:5 1.86433
19 *191:3 *191:4 1.4
20 *191:2 *191:3 0.124283
21 *191:1 *191:2 1.4
22 *529:SI *191:1 1.4
*END

*D_NET *192 0.0121801

*CONN
*I *894:A I *C 5.365 78.445 *L 0.0208 *D CLKINVX8
*I *893:A I *C 14.355 104.545 *L 0.0208 *D CLKINVX8
*I *959:QN O *C 61.625 79.025 *L 0 *D SDFFRX1

*CAP
1 *192:2 0.00060098
2 *192:3 0.00060098
3 *192:4 4.32416e-05
4 *192:5 0.00194352
5 *192:6 0.00354554
6 *192:7 0.00190028
7 *192:8 0.00354554

*RES
1 *192:10 *959:QN 1.4
2 *192:8 *192:10 1.4
3 *192:7 *893:A 1.4
4 *192:6 *192:8 20.2583
5 *192:5 *192:7 10.9369
6 *192:5 *192:6 1.4
7 *192:4 *192:5 0.248566
8 *192:3 *192:4 1.4
9 *192:2 *192:3 3.85278
10 *192:1 *192:2 1.4
11 *894:A *192:1 1.4
*END

*D_NET *193 0.00281331

*CONN
*I *964:D I *C 59.015 54.665 *L 0.00174 *D SDFFRX1
*I *682:Q O *C 71.975 55.115 *L 0 *D SDFFRXL
*I *760:A I *C 70.625 49.6725 *L 0.00163 *D INVXL

*CAP
1 *193:1 2.10714e-05
2 *193:2 2.10714e-05
3 *193:3 0.000826299
4 *193:4 0.000826299
5 *193:5 4.21428e-05
6 *193:6 0.000392377
7 *193:7 8.06145e-05
8 *193:8 0.000350234
9 *193:9 8.06145e-05
10 *193:10 2.053e-05
11 *193:11 5.37684e-05
12 *193:12 2.053e-05
13 *193:13 6.03078e-05
14 *193:14 4.67826e-06
15 *193:15 6.5394e-06
16 *193:16 5.45797e-06
17 *193:18 7.79709e-07

*RES
1 *193:18 *760:A 1.4
2 *193:16 *193:18 0.00428582
3 *193:15 *682:Q 1.4
4 *193:14 *193:16 0.0257149
5 *193:13 *193:15 0.0385706
6 *193:12 *193:14 1.4
7 *193:11 *193:13 0.317136
8 *193:10 *193:12 0.124283
9 *193:9 *193:11 1.4
10 *193:8 *193:10 1.4
11 *193:7 *193:9 0.497133
12 *193:6 *193:8 1.98858
13 *193:6 *193:7 1.4
14 *193:5 *193:6 0.248566
15 *193:4 *193:5 1.4
16 *193:3 *193:4 5.09561
17 *193:2 *193:3 1.4
18 *193:1 *193:2 0.124283
19 *964:D *193:1 1.4
*END

*D_NET *194 0.0149275

*CONN
*I *891:A I *C 5.365 107.155 *L 0.0208 *D CLKINVX8
*I *964:QN O *C 50.895 54.375 *L 0 *D SDFFRX1
*I *892:A I *C 5.365 52.345 *L 0.0208 *D CLKINVX8

*CAP
1 *194:2 1.65082e-05
2 *194:3 1.65082e-05
3 *194:4 0.00396567
4 *194:5 0.00396567
5 *194:6 2.03105e-05
6 *194:7 0.00328318
7 *194:8 0.00326287
8 *194:9 0.000157745
9 *194:11 0.000157745
10 *194:13 4.0621e-05
11 *194:14 4.0621e-05

*RES
1 *194:15 *892:A 1.4
2 *194:14 *194:15 1.4
3 *194:13 *194:14 0.248578
4 *194:11 *194:13 1.4
5 *194:10 *964:QN 1.4
6 *194:9 *194:11 0.870019
7 *194:8 *194:10 1.4
8 *194:7 *194:9 1.4
9 *194:7 *194:8 19.2648
10 *194:6 *194:7 0.124289
11 *194:5 *194:6 1.4
12 *194:4 *194:5 22.62
13 *194:3 *194:4 1.4
14 *194:2 *194:3 0.124289
15 *194:1 *194:2 1.4
16 *891:A *194:1 1.4
*END

*D_NET *195 0.00436817

*CONN
*I *659:SI I *C 79.605 75.835 *L 0.00276 *D SDFFRHQX1
*I *658:Q O *C 78.155 79.025 *L 0 *D SDFFRHQX1
*I *869:D I *C 92.945 89.175 *L 0.00278 *D SDFFRHQX8

*CAP
1 *195:2 4.04951e-05
2 *195:3 4.04951e-05
3 *195:4 8.74113e-05
4 *195:5 8.74113e-05
5 *195:6 4.04951e-05
6 *195:7 4.04951e-05
7 *195:8 0.000152627
8 *195:9 0.000934387
9 *195:10 0.00078176
10 *195:11 0.000104008
11 *195:12 0.000955573
12 *195:13 0.000104008
13 *195:14 0.000955573
14 *195:16 2.17156e-05
15 *195:18 2.17156e-05

*RES
1 *195:18 *869:D 1.4
2 *195:16 *195:18 0.124289
3 *195:15 *658:Q 1.4
4 *195:14 *195:16 1.4
5 *195:13 *195:15 1.4
6 *195:12 *195:14 5.71728
7 *195:11 *195:13 0.621444
8 *195:10 *195:12 1.4
9 *195:9 *195:11 1.4
10 *195:9 *195:10 4.4744
11 *195:8 *195:9 0.870021
12 *195:7 *195:8 1.4
13 *195:6 *195:7 0.248578
14 *195:5 *195:6 1.4
15 *195:4 *195:5 0.497155
16 *195:3 *195:4 1.4
17 *195:2 *195:3 0.248578
18 *195:1 *195:2 1.4
19 *659:SI *195:1 1.4
*END

*D_NET *196 0.00324786

*CONN
*I *928:SI I *C 33.785 12.905 *L 0.00268 *D SDFFRHQX4
*I *939:Q O *C 38.425 26.535 *L 0 *D SDFFRHQX4
*I *618:A0 I *C 38.715 31.465 *L 0.00259 *D AOI32X1

*CAP
1 *196:2 0.000298191
2 *196:3 0.000298191
3 *196:4 0.000810775
4 *196:5 0.000810775
5 *196:6 1.98794e-05
6 *196:7 1.98794e-05
7 *196:8 0.000120295
8 *196:9 0.000475109
9 *196:10 0.000354815
10 *196:12 1.99735e-05
11 *196:13 1.99735e-05

*RES
1 *196:14 *618:A0 1.4
2 *196:13 *196:14 1.4
3 *196:12 *196:13 0.124289
4 *196:10 *196:12 1.4
5 *196:9 *939:Q 1.4
6 *196:9 *196:10 2.11281
7 *196:8 *196:9 0.745698
8 *196:7 *196:8 1.4
9 *196:6 *196:7 0.124283
10 *196:5 *196:6 1.4
11 *196:4 *196:5 5.09561
12 *196:3 *196:4 1.4
13 *196:2 *196:3 1.86425
14 *196:1 *196:2 1.4
15 *928:SI *196:1 1.4
*END

*D_NET *197 0.0025779

*CONN
*I *600:SI I *C 59.885 68.005 *L 0.00276 *D SDFFRHQX1
*I *575:Q O *C 72.065 70.035 *L 0 *D SDFFRHQX1
*I *882:D I *C 68.585 73.515 *L 0.00174 *D SDFFRX1

*CAP
1 *197:1 2.10714e-05
2 *197:2 2.10714e-05
3 *197:3 0.000483687
4 *197:4 0.000483687
5 *197:5 0.000168571
6 *197:6 0.000168571
7 *197:7 0.000120922
8 *197:8 0.000362765
9 *197:9 0.000241843
10 *197:10 0.000252857
11 *197:12 0.000252857

*RES
1 *197:12 *882:D 1.4
2 *197:11 *575:Q 1.4
3 *197:10 *197:12 1.4914
4 *197:9 *197:11 1.4
5 *197:8 *197:10 1.4
6 *197:8 *197:9 1.4914
7 *197:7 *197:8 0.745699
8 *197:6 *197:7 1.4
9 *197:5 *197:6 0.994264
10 *197:4 *197:5 1.4
11 *197:3 *197:4 2.9828
12 *197:2 *197:3 1.4
13 *197:1 *197:2 0.124283
14 *600:SI *197:1 1.4
*END

*D_NET *198 0.0135984

*CONN
*I *879:A I *C 18.995 68.005 *L 0.0208 *D CLKINVX8
*I *882:QN O *C 60.465 73.805 *L 0 *D SDFFRX1
*I *878:A I *C 76.415 107.155 *L 0.0208 *D CLKINVX8

*CAP
1 *198:2 0.0029401
2 *198:3 0.0029401
3 *198:4 0.000273928
4 *198:5 0.000273928
5 *198:6 8.06145e-05
6 *198:7 8.06145e-05
7 *198:8 0.0001475
8 *198:9 0.0025286
9 *198:10 0.0023811
10 *198:12 0.000975944
11 *198:13 0.000975944

*RES
1 *198:14 *878:A 1.4
2 *198:13 *198:14 1.4
3 *198:12 *198:13 6.83559
4 *198:10 *198:12 1.4
5 *198:9 *882:QN 1.4
6 *198:9 *198:10 14.2926
7 *198:8 *198:9 0.869981
8 *198:7 *198:8 1.4
9 *198:6 *198:7 0.497133
10 *198:5 *198:6 1.4
11 *198:4 *198:5 1.61568
12 *198:3 *198:4 1.4
13 *198:2 *198:3 17.276
14 *198:1 *198:2 1.4
15 *879:A *198:1 1.4
*END

*D_NET *199 0.00287303

*CONN
*I *563:A2 I *C 75.545 10.875 *L 0.00279 *D OAI31X1
*I *538:SI I *C 72.935 26.245 *L 0.00276 *D SDFFRHQX1
*I *927:Q O *C 70.615 12.905 *L 0 *D SDFFRHQX4

*CAP
1 *199:1 7.99253e-05
2 *199:2 7.99253e-05
3 *199:3 0.00018858
4 *199:4 0.00018858
5 *199:5 7.99253e-05
6 *199:6 0.0009804
7 *199:7 0.000900474
8 *199:8 0.000167627
9 *199:10 0.000167627
10 *199:11 1.99813e-05
11 *199:12 1.99813e-05

*RES
1 *199:12 *927:Q 1.4
2 *199:11 *199:12 0.124289
3 *199:10 *199:11 1.4
4 *199:8 *199:10 0.99431
5 *199:7 *538:SI 1.4
6 *199:6 *199:8 1.4
7 *199:6 *199:7 5.59299
8 *199:5 *199:6 0.497155
9 *199:4 *199:5 1.4
10 *199:3 *199:4 1.1186
11 *199:2 *199:3 1.4
12 *199:1 *199:2 0.497155
13 *563:A2 *199:1 1.4
*END

*D_NET *200 0.00240356

*CONN
*I *939:SI I *C 28.565 26.535 *L 0.00268 *D SDFFRHQX4
*I *936:Q O *C 33.495 28.565 *L 0 *D SDFFRHQX4
*I *637:A I *C 35.235 31.465 *L 0.00157 *D NAND2XL
*I *635:A0N I *C 31.175 34.075 *L 0.00172 *D AOI2BB1X1

*CAP
1 *200:2 0.000359523
2 *200:3 0.000359523
3 *200:4 0.0001461
4 *200:5 0.0001461
5 *200:6 1.99735e-05
6 *200:7 1.99735e-05
7 *200:8 0.000208715
8 *200:9 0.0002922
9 *200:11 8.34858e-05
10 *200:12 0.000119841
11 *200:13 0.000159788
12 *200:14 0.000119841
13 *200:15 0.000159788
14 *200:17 0.000104357
15 *200:19 0.000104357

*RES
1 *200:19 *635:A0N 1.4
2 *200:17 *200:19 0.621413
3 *200:16 *637:A 1.4
4 *200:15 *200:17 1.4
5 *200:14 *200:16 1.4
6 *200:13 *200:15 0.99431
7 *200:12 *200:14 0.745733
8 *200:11 *200:13 1.4
9 *200:9 *200:12 1.4
10 *200:9 *200:11 0.497131
11 *200:8 *936:Q 1.4
12 *200:8 *200:9 1.24283
13 *200:7 *200:8 1.4
14 *200:6 *200:7 0.124289
15 *200:5 *200:6 1.4
16 *200:4 *200:5 0.869979
17 *200:3 *200:4 1.4
18 *200:2 *200:3 2.2372
19 *200:1 *200:2 1.4
20 *939:SI *200:1 1.4
*END

*D_NET *201 0.0114109

*CONN
*I *808:B I *C 31.755 73.515 *L 0.00276 *D NAND3BX1
*I *822:D I *C 26.535 68.295 *L 0.00276 *D SDFFRHQX1
*I *928:Q O *C 23.925 12.905 *L 0 *D SDFFRHQX4
*I *942:SI I *C 36.105 10.875 *L 0.00268 *D SDFFRHQX4

*CAP
1 *201:1 0.000383316
2 *201:2 0.000383316
3 *201:3 0.000389746
4 *201:4 0.000389746
5 *201:5 0.00396008
6 *201:7 0.00397986
7 *201:8 0.000177859
8 *201:9 1.9775e-05
9 *201:10 0.000177859
10 *201:11 0.00065602
11 *201:13 0.00065602
12 *201:15 0.00011865
13 *201:16 0.00011865

*RES
1 *201:16 *942:SI 1.4
2 *201:15 *201:16 0.745699
3 *201:13 *201:15 1.4
4 *201:12 *928:Q 1.4
5 *201:11 *201:13 4.10134
6 *201:10 *201:12 1.4
7 *201:9 *201:11 1.4
8 *201:8 *201:10 1.11859
9 *201:7 *201:9 0.124283
10 *201:7 *201:8 1.4
11 *201:5 *201:7 23.738
12 *201:5 *822:D 1.4
13 *201:4 *201:5 1.4
14 *201:3 *201:4 2.2372
15 *201:2 *201:3 1.4
16 *201:1 *201:2 2.23709
17 *808:B *201:1 1.4
*END

*D_NET *202 0.00545162

*CONN
*I *831:A I *C 35.815 73.515 *L 0.00273 *D INVX1
*I *821:D I *C 30.015 70.325 *L 0.00276 *D SDFFRHQX1
*I *929:Q O *C 27.405 52.635 *L 0 *D SDFFRHQX4
*I *598:SI I *C 29.725 49.735 *L 0.00276 *D SDFFRHQX1

*CAP
1 *202:1 2.12953e-05
2 *202:2 2.12953e-05
3 *202:3 0.00058462
4 *202:4 0.00058462
5 *202:5 0.000255544
6 *202:6 0.00153326
7 *202:7 0.000151568
8 *202:8 0.00127772
9 *202:9 0.000151568
10 *202:10 2.16526e-05
11 *202:12 4.33052e-05
12 *202:14 0.000230646
13 *202:15 2.16526e-05
14 *202:16 0.000230646
15 *202:17 2.12953e-05
16 *202:18 0.000139814
17 *202:19 2.12953e-05
18 *202:20 0.000139814

*RES
1 *202:22 *598:SI 1.4
2 *202:20 *202:22 1.4
3 *202:19 *929:Q 1.4
4 *202:18 *202:20 0.870021
5 *202:17 *202:19 0.124283
6 *202:16 *202:18 1.4
7 *202:15 *202:17 1.4
8 *202:14 *202:16 1.36711
9 *202:12 *202:15 0.124289
10 *202:12 *202:14 1.4
11 *202:11 *821:D 1.4
12 *202:10 *202:12 0.124289
13 *202:9 *202:11 1.4
14 *202:8 *202:10 1.4
15 *202:7 *202:9 0.870021
16 *202:6 *202:8 7.45696
17 *202:6 *202:7 1.4
18 *202:5 *202:6 1.49139
19 *202:4 *202:5 1.4
20 *202:3 *202:4 3.3558
21 *202:2 *202:3 1.4
22 *202:1 *202:2 0.124283
23 *831:A *202:1 1.4
*END

*D_NET *203 0.00435177

*CONN
*I *524:D I *C 12.905 44.225 *L 0.00276 *D SDFFRHQX1
*I *897:SI I *C 6.525 28.565 *L 0.00268 *D SDFFRHQX4
*I *948:Q O *C 16.385 26.535 *L 0 *D SDFFRHQX4

*CAP
1 *203:2 0.000117867
2 *203:3 0.000117867
3 *203:4 0.00118832
4 *203:5 0.00118832
5 *203:6 0.000589336
6 *203:7 3.9289e-05
7 *203:8 0.000550047
8 *203:9 0.000179368
9 *203:10 2.24211e-05
10 *203:11 0.000179368
11 *203:12 2.24211e-05
12 *203:13 7.85781e-05
13 *203:15 7.85781e-05

*RES
1 *203:16 *948:Q 1.4
2 *203:15 *203:16 1.4
3 *203:13 *203:15 0.497155
4 *203:12 *897:SI 1.4
5 *203:11 *203:13 1.4
6 *203:10 *203:12 0.124289
7 *203:9 *203:11 0.99431
8 *203:8 *203:10 1.4
9 *203:7 *203:9 1.4
10 *203:6 *203:8 3.48009
11 *203:6 *203:7 0.248578
12 *203:5 *203:6 1.4
13 *203:4 *203:5 6.5873
14 *203:3 *203:4 1.4
15 *203:2 *203:3 0.745732
16 *203:1 *203:2 1.4
17 *524:D *203:1 1.4
*END

*D_NET *204 0.00520233

*CONN
*I *877:D I *C 7.685 57.855 *L 0.00174 *D SDFFRX1
*I *524:Q O *C 5.945 43.935 *L 0 *D SDFFRHQX1
*I *948:SI I *C 6.525 26.535 *L 0.00268 *D SDFFRHQX4

*CAP
1 *204:2 2.03105e-05
2 *204:3 2.03105e-05
3 *204:4 0.000988749
4 *204:5 0.000988749
5 *204:6 0.000117867
6 *204:7 0.000117867
7 *204:8 8.96842e-05
8 *204:9 0.00143495
9 *204:10 1.96445e-05
10 *204:11 0.00134526
11 *204:12 1.96445e-05
12 *204:13 1.96445e-05
13 *204:15 1.96445e-05

*RES
1 *204:17 *948:SI 1.4
2 *204:15 *204:17 1.4
3 *204:14 *524:Q 1.4
4 *204:13 *204:15 0.124289
5 *204:12 *204:14 1.4
6 *204:11 *204:13 1.4
7 *204:10 *204:12 0.124289
8 *204:9 *204:11 7.45733
9 *204:9 *204:10 1.4
10 *204:8 *204:9 0.497155
11 *204:7 *204:8 1.4
12 *204:6 *204:7 0.745732
13 *204:5 *204:6 1.4
14 *204:4 *204:5 5.4687
15 *204:3 *204:4 1.4
16 *204:2 *204:3 0.124289
17 *204:1 *204:2 1.4
18 *877:D *204:1 1.4
*END

*D_NET *205 0.0134971

*CONN
*I *863:A I *C 61.045 91.495 *L 0.0208 *D CLKINVX8
*I *864:A I *C 5.365 62.785 *L 0.0208 *D CLKINVX8
*I *877:QN O *C 15.805 58.145 *L 0 *D SDFFRX1

*CAP
1 *205:2 0.0034065
2 *205:3 0.0034065
3 *205:4 0.00218937
4 *205:5 0.00218937
5 *205:6 6.09315e-05
6 *205:7 0.000731177
7 *205:8 0.000360561
8 *205:9 0.000670246
9 *205:10 0.000360561
10 *205:12 6.09315e-05
11 *205:14 6.09315e-05

*RES
1 *205:15 *877:QN 1.4
2 *205:14 *205:15 1.4
3 *205:12 *205:14 0.372866
4 *205:11 *864:A 1.4
5 *205:10 *205:12 1.4
6 *205:9 *205:11 1.4
7 *205:8 *205:10 1.98861
8 *205:7 *205:9 4.10153
9 *205:7 *205:8 1.4
10 *205:6 *205:7 0.372866
11 *205:5 *205:6 1.4
12 *205:4 *205:5 12.3043
13 *205:3 *205:4 1.4
14 *205:2 *205:3 19.3883
15 *205:1 *205:2 1.4
16 *863:A *205:1 1.4
*END

*D_NET *206 0.00121797

*CONN
*I *933:D I *C 60.175 57.855 *L 0.00174 *D SDFFRX1
*I *755:A I *C 65.115 57.6275 *L 0.00163 *D INVXL
*I *683:Q O *C 68.385 57.405 *L 0 *D SDFFRXL

*CAP
1 *206:1 2.10714e-05
2 *206:2 2.10714e-05
3 *206:3 0.000342612
4 *206:4 0.000564301
5 *206:5 0.00022169
6 *206:6 4.7229e-06
7 *206:7 1.16256e-05
8 *206:8 5.4495e-06
9 *206:9 1.8165e-05
10 *206:10 7.26601e-07
11 *206:11 6.5394e-06

*RES
1 *206:11 *683:Q 1.4
2 *206:10 *755:A 1.4
3 *206:9 *206:11 0.0385706
4 *206:8 *206:10 0.00428562
5 *206:7 *206:9 0.06857
6 *206:6 *206:8 0.0278565
7 *206:5 *206:7 1.4
8 *206:4 *206:6 1.4
9 *206:4 *206:5 1.36711
10 *206:3 *206:4 2.11281
11 *206:2 *206:3 1.4
12 *206:1 *206:2 0.124283
13 *933:D *206:1 1.4
*END

*D_NET *207 0.0144237

*CONN
*I *885:A I *C 5.365 104.545 *L 0.0208 *D CLKINVX8
*I *933:QN O *C 52.055 58.145 *L 0 *D SDFFRX1
*I *890:A I *C 5.655 54.955 *L 0.0208 *D CLKINVX8

*CAP
1 *207:2 3.30164e-05
2 *207:3 3.30164e-05
3 *207:4 0.00352051
4 *207:5 0.00352051
5 *207:6 4.0621e-05
6 *207:7 0.00334948
7 *207:8 0.00330886
8 *207:9 0.000247885
9 *207:11 0.000247885
10 *207:13 6.09315e-05
11 *207:14 6.09315e-05

*RES
1 *207:15 *890:A 1.4
2 *207:14 *207:15 1.4
3 *207:13 *207:14 0.372866
4 *207:11 *207:13 1.4
5 *207:10 *933:QN 1.4
6 *207:9 *207:11 1.36717
7 *207:8 *207:10 1.4
8 *207:7 *207:9 1.4
9 *207:7 *207:8 19.5133
10 *207:6 *207:7 0.248578
11 *207:5 *207:6 1.4
12 *207:4 *207:5 19.8857
13 *207:3 *207:4 1.4
14 *207:2 *207:3 0.248578
15 *207:1 *207:2 1.4
16 *885:A *207:1 1.4
*END

*D_NET *208 0.00379641

*CONN
*I *882:SI I *C 70.035 73.515 *L 0.00168 *D SDFFRX1
*I *659:Q O *C 71.195 75.255 *L 0 *D SDFFRHQX1
*I *868:D I *C 83.955 85.985 *L 0.00278 *D SDFFRHQX8

*CAP
1 *208:2 4.03072e-05
2 *208:3 4.03072e-05
3 *208:4 0.000126428
4 *208:5 0.000126428
5 *208:6 4.03072e-05
6 *208:7 4.03072e-05
7 *208:8 6.32142e-05
8 *208:9 6.32142e-05
9 *208:11 0.000888591
10 *208:12 0.000888591
11 *208:13 0.000739359
12 *208:14 0.000739359

*RES
1 *208:14 *868:D 1.4
2 *208:13 *208:14 4.22582
3 *208:12 *208:13 1.4
4 *208:11 *208:12 5.46857
5 *208:9 *208:11 1.4
6 *208:8 *659:Q 1.4
7 *208:8 *208:9 0.372849
8 *208:7 *208:8 1.4
9 *208:6 *208:7 0.248566
10 *208:5 *208:6 1.4
11 *208:4 *208:5 0.745698
12 *208:3 *208:4 1.4
13 *208:2 *208:3 0.248566
14 *208:1 *208:2 1.4
15 *882:SI *208:1 1.4
*END

*D_NET *209 0.00486351

*CONN
*I *968:SI I *C 7.105 16.095 *L 0.00268 *D SDFFRHQX4
*I *941:Q O *C 7.395 21.315 *L 0 *D SDFFRHQX4
*I *525:D I *C 8.265 47.415 *L 0.00276 *D SDFFRHQX1

*CAP
1 *209:1 0.000245264
2 *209:2 0.000245264
3 *209:3 1.97386e-05
4 *209:4 1.97386e-05
5 *209:5 0.000122632
6 *209:6 0.00210782
7 *209:7 0.00198519
8 *209:9 5.89336e-05
9 *209:10 5.89336e-05

*RES
1 *209:11 *525:D 1.4
2 *209:10 *209:11 1.4
3 *209:9 *209:10 0.372866
4 *209:7 *209:9 1.4
5 *209:6 *941:Q 1.4
6 *209:6 *209:7 11.1859
7 *209:5 *209:6 0.745696
8 *209:4 *209:5 1.4
9 *209:3 *209:4 0.124289
10 *209:2 *209:3 1.4
11 *209:1 *209:2 1.49139
12 *968:SI *209:1 1.4
*END

*D_NET *210 0.00287294

*CONN
*I *524:SI I *C 14.355 44.515 *L 0.00276 *D SDFFRHQX1
*I *525:Q O *C 15.225 47.705 *L 0 *D SDFFRHQX1
*I *870:D I *C 19.575 57.855 *L 0.00174 *D SDFFRX1

*CAP
1 *210:1 4.48421e-05
2 *210:2 4.48421e-05
3 *210:3 7.85781e-05
4 *210:4 7.85781e-05
5 *210:5 4.48421e-05
6 *210:6 4.48421e-05
7 *210:7 1.96445e-05
8 *210:8 1.96445e-05
9 *210:9 0.000156947
10 *210:10 0.000921372
11 *210:11 0.000764425
12 *210:13 0.000304657
13 *210:14 0.000304657
14 *210:15 2.2535e-05
15 *210:16 2.2535e-05

*RES
1 *210:16 *870:D 1.4
2 *210:15 *210:16 0.124288
3 *210:14 *210:15 1.4
4 *210:13 *210:14 1.86433
5 *210:11 *210:13 1.4
6 *210:10 *525:Q 1.4
7 *210:10 *210:11 4.22581
8 *210:9 *210:10 0.870021
9 *210:8 *210:9 1.4
10 *210:7 *210:8 0.124289
11 *210:6 *210:7 1.4
12 *210:5 *210:6 0.248578
13 *210:4 *210:5 1.4
14 *210:3 *210:4 0.497155
15 *210:2 *210:3 1.4
16 *210:1 *210:2 0.248578
17 *524:SI *210:1 1.4
*END

*D_NET *211 0.013365

*CONN
*I *859:A I *C 63.365 88.885 *L 0.0208 *D CLKINVX8
*I *870:QN O *C 27.695 58.145 *L 0 *D SDFFRX1
*I *860:A I *C 5.365 60.175 *L 0.0208 *D CLKINVX8

*CAP
1 *211:1 2.0853e-05
2 *211:2 2.0853e-05
3 *211:3 0.00257531
4 *211:4 0.00257531
5 *211:5 0.00219277
6 *211:6 0.00219277
7 *211:7 0.000173221
8 *211:8 0.00174451
9 *211:9 0.000149067
10 *211:10 0.00157129
11 *211:11 0.000149067

*RES
1 *211:12 *860:A 1.4
2 *211:11 *870:QN 1.4
3 *211:10 *211:12 1.4
4 *211:9 *211:11 0.869979
5 *211:8 *211:10 9.57023
6 *211:8 *211:9 1.4
7 *211:7 *211:8 0.99431
8 *211:6 *211:7 1.4
9 *211:5 *211:6 12.4285
10 *211:4 *211:5 1.4
11 *211:3 *211:4 14.2928
12 *211:2 *211:3 1.4
13 *211:1 *211:2 0.124283
14 *859:A *211:1 1.4
*END

*D_NET *212 0.00143174

*CONN
*I *924:SI I *C 77.575 5.655 *L 0.00268 *D SDFFRHQX4
*I *563:A1 I *C 75.835 10.585 *L 0.00267 *D OAI31X1
*I *909:Q O *C 72.645 5.655 *L 0 *D SDFFRHQX4

*CAP
1 *212:1 1.99813e-05
2 *212:2 1.99813e-05
3 *212:3 0.00012572
4 *212:4 0.00012572
5 *212:5 0.000339682
6 *212:6 0.000319701
7 *212:7 1.99813e-05
8 *212:9 0.000230487
9 *212:10 0.000230487

*RES
1 *212:11 *909:Q 1.4
2 *212:10 *212:11 1.4
3 *212:9 *212:10 1.36718
4 *212:7 *212:9 1.4
5 *212:6 *563:A1 1.4
6 *212:5 *212:7 0.124289
7 *212:5 *212:6 1.98862
8 *212:4 *212:5 1.4
9 *212:3 *212:4 0.745733
10 *212:2 *212:3 1.4
11 *212:1 *212:2 0.124289
12 *924:SI *212:1 1.4
*END

*D_NET *213 0.0126301

*CONN
*I *648:D I *C 75.545 83.955 *L 0.00276 *D SDFFRHQX1
*I *934:SI I *C 94.975 21.315 *L 0.00268 *D SDFFRHQX4
*I *954:Q O *C 95.555 18.125 *L 0 *D SDFFRHQX4

*CAP
1 *213:1 0.00462783
2 *213:2 0.00462783
3 *213:3 0.00134797
4 *213:4 0.00136795
5 *213:5 1.9981e-05
6 *213:6 3.99077e-05
7 *213:7 0.0002594
8 *213:8 3.99077e-05
9 *213:9 0.0002594
10 *213:11 1.9981e-05
11 *213:12 1.9981e-05

*RES
1 *213:13 *954:Q 1.4
2 *213:12 *213:13 1.4
3 *213:11 *213:12 0.124283
4 *213:9 *213:11 1.4
5 *213:8 *934:SI 1.4
6 *213:7 *213:9 1.61567
7 *213:6 *213:8 0.248565
8 *213:5 *213:7 1.4
9 *213:4 *213:6 1.4
10 *213:4 *213:5 0.124283
11 *213:3 *213:4 8.32702
12 *213:2 *213:3 1.4
13 *213:1 *213:2 26.5972
14 *648:D *213:1 1.4
*END

*D_NET *214 0.00322393

*CONN
*I *647:SI I *C 76.705 81.055 *L 0.00276 *D SDFFRHQX1
*I *648:Q O *C 68.585 84.245 *L 0 *D SDFFRHQX1
*I *858:D I *C 74.965 94.395 *L 0.00278 *D SDFFRHQX8

*CAP
1 *214:2 2.10557e-05
2 *214:3 2.10557e-05
3 *214:4 0.000229383
4 *214:5 0.000229383
5 *214:6 0.000126334
6 *214:7 0.000610616
7 *214:8 0.000729856
8 *214:9 0.000484281
9 *214:10 0.000729856
10 *214:12 2.10557e-05
11 *214:14 2.10557e-05

*RES
1 *214:15 *858:D 1.4
2 *214:14 *214:15 1.4
3 *214:12 *214:14 0.124289
4 *214:11 *648:Q 1.4
5 *214:10 *214:12 1.4
6 *214:9 *214:11 1.4
7 *214:8 *214:10 4.34991
8 *214:7 *214:9 2.85864
9 *214:7 *214:8 1.4
10 *214:6 *214:7 0.745732
11 *214:5 *214:6 1.4
12 *214:4 *214:5 1.36711
13 *214:3 *214:4 1.4
14 *214:2 *214:3 0.124289
15 *214:1 *214:2 1.4
16 *647:SI *214:1 1.4
*END

*D_NET *215 0.0016541

*CONN
*I *682:SI I *C 63.945 54.665 *L 0.00161 *D SDFFRXL
*I *964:Q O *C 52.055 54.665 *L 0 *D SDFFRX1

*CAP
1 *215:2 0.000827048
2 *215:3 0.000827048

*RES
1 *215:4 *964:Q 1.4
2 *215:3 *215:4 1.4
3 *215:2 *215:3 5.09561
4 *215:1 *215:2 1.4
5 *682:SI *215:1 1.4
*END

*D_NET *216 0.00443884

*CONN
*I *652:SI I *C 90.915 78.445 *L 0.00276 *D SDFFRHQX1
*I *959:Q O *C 60.465 78.735 *L 0 *D SDFFRX1

*CAP
1 *216:2 0.00219857
2 *216:3 0.00219857
3 *216:4 2.0853e-05
4 *216:5 2.0853e-05

*RES
1 *216:5 *959:Q 1.4
2 *216:4 *216:5 0.124283
3 *216:3 *216:4 1.4
4 *216:2 *216:3 13.0503
5 *216:1 *216:2 1.4
6 *652:SI *216:1 1.4
*END

*D_NET *217 0.00147125

*CONN
*I *964:SI I *C 60.465 54.665 *L 0.00168 *D SDFFRX1
*I *933:Q O *C 53.215 57.855 *L 0 *D SDFFRX1

*CAP
1 *217:1 0.000231786
2 *217:2 0.000231786
3 *217:3 0.000503841
4 *217:4 0.000503841

*RES
1 *217:5 *933:Q 1.4
2 *217:4 *217:5 1.4
3 *217:3 *217:4 3.10708
4 *217:2 *217:3 1.4
5 *217:1 *217:2 1.36711
6 *964:SI *217:1 1.4
*END

*D_NET *218 0.00121799

*CONN
*I *857:SI I *C 63.365 99.325 *L 0.00271 *D SDFFRHQX8
*I *895:Q O *C 57.275 101.645 *L 0 *D SDFFRX1

*CAP
1 *218:1 0.000166824
2 *218:2 0.000166824
3 *218:3 0.00044217
4 *218:4 0.00044217

*RES
1 *218:5 *895:Q 1.4
2 *218:4 *218:5 1.4
3 *218:3 *218:4 2.61006
4 *218:2 *218:3 1.4
5 *218:1 *218:2 0.994265
6 *857:SI *218:1 1.4
*END

*D_NET *219 0.000703579

*CONN
*I *575:SI I *C 63.655 70.615 *L 0.00276 *D SDFFRHQX1
*I *882:Q O *C 61.625 73.515 *L 0 *D SDFFRX1

*CAP
1 *219:2 8.06145e-05
2 *219:3 8.06145e-05
3 *219:4 0.000210714
4 *219:5 0.000210714
5 *219:6 6.04609e-05
6 *219:7 6.04609e-05

*RES
1 *219:8 *882:Q 1.4
2 *219:7 *219:8 1.4
3 *219:6 *219:7 0.372849
4 *219:5 *219:6 1.4
5 *219:4 *219:5 1.24283
6 *219:3 *219:4 1.4
7 *219:2 *219:3 0.497133
8 *219:1 *219:2 1.4
9 *575:SI *219:1 1.4
*END

*D_NET *220 0.00173149

*CONN
*I *523:SI I *C 11.165 49.735 *L 0.00276 *D SDFFRHQX1
*I *877:Q O *C 14.645 57.855 *L 0 *D SDFFRX1

*CAP
1 *220:1 2.24211e-05
2 *220:2 2.24211e-05
3 *220:3 0.000235734
4 *220:4 0.000235734
5 *220:5 0.000607591
6 *220:6 0.000607591

*RES
1 *220:6 *877:Q 1.4
2 *220:5 *220:6 3.35579
3 *220:4 *220:5 1.4
4 *220:3 *220:4 1.49146
5 *220:2 *220:3 1.4
6 *220:1 *220:2 0.124289
7 *523:SI *220:1 1.4
*END

*D_NET *221 0.000653806

*CONN
*I *670:SI I *C 10.585 65.395 *L 0.00276 *D SDFFRHQX1
*I *876:Q O *C 12.035 63.075 *L 0 *D SDFFRX1

*CAP
1 *221:1 2.2535e-05
2 *221:2 2.2535e-05
3 *221:3 0.000101552
4 *221:4 0.000101552
5 *221:5 0.000202815
6 *221:6 0.000202815

*RES
1 *221:6 *876:Q 1.4
2 *221:5 *221:6 1.1186
3 *221:4 *221:5 1.4
4 *221:3 *221:4 0.621444
5 *221:2 *221:3 1.4
6 *221:1 *221:2 0.124288
7 *670:SI *221:1 1.4
*END

*D_NET *222 0.00300148

*CONN
*I *872:SI I *C 25.085 75.835 *L 0.00271 *D SDFFRHQX8
*I *870:Q O *C 26.535 57.855 *L 0 *D SDFFRX1

*CAP
1 *222:2 4.0621e-05
2 *222:3 4.0621e-05
3 *222:4 0.00139717
4 *222:5 0.00139717
5 *222:6 6.29446e-05
6 *222:7 6.29446e-05

*RES
1 *222:8 *870:Q 1.4
2 *222:7 *222:8 1.4
3 *222:6 *222:7 0.372866
4 *222:5 *222:6 1.4
5 *222:4 *222:5 7.70588
6 *222:3 *222:4 1.4
7 *222:2 *222:3 0.248578
8 *222:1 *222:2 1.4
9 *872:SI *222:1 1.4
*END

*D_NET *223 0.00364662

*CONN
*I *564:B0 I *C 68.295 31.465 *L 0.0028 *D OAI211X1
*I *548:A1 I *C 61.915 34.365 *L 0.00166 *D OAI21XL
*I *537:Q O *C 62.205 28.275 *L 0 *D SDFFRHQX1
*I *843:SI I *C 66.265 21.025 *L 0.00276 *D SDFFRHQX1

*CAP
1 *223:1 2.26116e-05
2 *223:2 2.26116e-05
3 *223:3 0.000451659
4 *223:4 0.000472189
5 *223:5 0.000203504
6 *223:6 2.053e-05
7 *223:7 0.000203504
8 *223:8 0.000135669
9 *223:10 0.000135669
10 *223:11 4.106e-05
11 *223:12 4.106e-05
12 *223:13 0.000135669
13 *223:14 0.000654929
14 *223:16 0.00051926
15 *223:17 0.000293347
16 *223:18 0.000293347

*RES
1 *223:19 *843:SI 1.4
2 *223:18 *223:19 1.4
3 *223:17 *223:18 1.74004
4 *223:16 *223:17 1.4
5 *223:14 *223:16 3.10722
6 *223:14 *537:Q 1.4
7 *223:13 *223:14 0.745732
8 *223:12 *223:13 1.4
9 *223:11 *223:12 0.248566
10 *223:10 *223:11 1.4
11 *223:8 *223:10 0.745732
12 *223:7 *548:A1 1.4
13 *223:6 *223:8 1.4
14 *223:5 *223:7 1.1186
15 *223:4 *223:6 0.124283
16 *223:4 *223:5 1.4
17 *223:3 *223:4 2.73423
18 *223:2 *223:3 1.4
19 *223:1 *223:2 0.124289
20 *564:B0 *223:1 1.4
*END

*D_NET *224 0.00296012

*CONN
*I *582:B0 I *C 43.645 49.445 *L 0.00166 *D AOI21XL
*I *601:SI I *C 42.485 60.175 *L 0.00276 *D SDFFRHQX1
*I *579:Q O *C 42.775 47.705 *L 0 *D SDFFRHQX1
*I *626:A0 I *C 39.875 47.125 *L 0.00261 *D AOI31X1
*I *627:B0 I *C 39.875 49.445 *L 0.00277 *D AOI31X1

*CAP
1 *224:1 2.08715e-05
2 *224:2 2.08715e-05
3 *224:3 3.99469e-05
4 *224:4 7.98939e-05
5 *224:5 0.000187843
6 *224:6 3.99469e-05
7 *224:7 0.000187843
8 *224:8 0.000763029
9 *224:9 1.99735e-05
10 *224:10 0.000763029
11 *224:11 0.000219708
12 *224:13 4.17429e-05
13 *224:14 0.000199735
14 *224:15 4.17429e-05
15 *224:16 0.000166972
16 *224:18 0.000166972

*RES
1 *224:18 *627:B0 1.4
2 *224:16 *626:A0 1.4
3 *224:16 *224:18 0.994261
4 *224:15 *579:Q 1.4
5 *224:14 *224:16 1.4
6 *224:13 *224:15 0.248565
7 *224:11 *224:14 1.24289
8 *224:11 *224:13 1.4
9 *224:10 *601:SI 1.4
10 *224:9 *224:11 0.124289
11 *224:8 *224:10 4.47418
12 *224:7 *224:9 1.4
13 *224:6 *224:8 1.4
14 *224:5 *224:7 1.11854
15 *224:4 *224:6 0.248578
16 *224:4 *224:5 1.4
17 *224:3 *224:4 0.248578
18 *224:2 *224:3 1.4
19 *224:1 *224:2 0.124283
20 *582:B0 *224:1 1.4
*END

*D_NET *225 0.00218911

*CONN
*I *528:SI I *C 70.905 47.125 *L 0.00276 *D SDFFRHQX1
*I *683:QN O *C 67.135 58.145 *L 0 *D SDFFRXL

*CAP
1 *225:2 0.00026689
2 *225:3 0.00026689
3 *225:4 0.000827667
4 *225:5 0.000827667

*RES
1 *225:5 *683:QN 1.4
2 *225:4 *225:5 4.72286
3 *225:3 *225:4 1.4
4 *225:2 *225:3 1.61568
5 *225:1 *225:2 1.4
6 *528:SI *225:1 1.4
*END

*D_NET *226 0.00176197

*CONN
*I *812:B0 I *C 39.295 78.735 *L 0.00278 *D AOI211X1
*I *593:SI I *C 39.875 73.225 *L 0.00276 *D SDFFRHQX1
*I *821:Q O *C 36.975 70.035 *L 0 *D SDFFRHQX1

*CAP
1 *226:2 2.30675e-05
2 *226:3 2.30675e-05
3 *226:4 0.000407141
4 *226:5 0.000407141
5 *226:6 0.000216526
6 *226:7 2.16526e-05
7 *226:8 0.000194873
8 *226:10 0.000234249
9 *226:12 0.000234249

*RES
1 *226:12 *821:Q 1.4
2 *226:10 *226:12 1.36711
3 *226:9 *593:SI 1.4
4 *226:8 *226:10 1.4
5 *226:7 *226:9 1.4
6 *226:6 *226:8 1.1186
7 *226:6 *226:7 0.124289
8 *226:5 *226:6 1.4
9 *226:4 *226:5 2.36138
10 *226:3 *226:4 1.4
11 *226:2 *226:3 0.124283
12 *226:1 *226:2 1.4
13 *812:B0 *226:1 1.4
*END

*D_NET *227 0.0107745

*CONN
*I *647:D I *C 75.255 80.765 *L 0.00276 *D SDFFRHQX1
*I *955:Q O *C 77.865 23.345 *L 0 *D SDFFRHQX4
*I *954:SI I *C 85.695 18.125 *L 0.00268 *D SDFFRHQX4

*CAP
1 *227:1 0.00425858
2 *227:2 0.00425858
3 *227:3 0.00018858
4 *227:4 0.00018858
5 *227:5 3.99626e-05
6 *227:6 5.9944e-05
7 *227:8 1.99813e-05
8 *227:9 0.000540946
9 *227:10 0.000540946
10 *227:11 0.000339215
11 *227:12 0.000339215

*RES
1 *227:12 *954:SI 1.4
2 *227:11 *227:12 2.11281
3 *227:10 *227:11 1.4
4 *227:9 *227:10 3.35565
5 *227:8 *227:9 1.4
6 *227:6 *227:8 0.124289
7 *227:6 *955:Q 1.4
8 *227:5 *227:6 0.248578
9 *227:4 *227:5 1.4
10 *227:3 *227:4 1.1186
11 *227:2 *227:3 1.4
12 *227:1 *227:2 24.36
13 *647:D *227:1 1.4
*END

*D_NET *228 0.00376043

*CONN
*I *857:D I *C 64.815 99.615 *L 0.00278 *D SDFFRHQX8
*I *647:Q O *C 68.295 80.475 *L 0 *D SDFFRHQX1
*I *658:SI I *C 69.745 78.445 *L 0.00276 *D SDFFRHQX1

*CAP
1 *228:2 0.000189501
2 *228:3 0.000189501
3 *228:4 0.00125118
4 *228:5 0.00125118
5 *228:6 6.31671e-05
6 *228:7 6.31671e-05
7 *228:8 0.000125118
8 *228:9 0.000125118
9 *228:10 0.000105279
10 *228:12 0.000105279
11 *228:13 0.000145971
12 *228:14 0.000145971

*RES
1 *228:14 *658:SI 1.4
2 *228:13 *228:14 0.869982
3 *228:12 *228:13 1.4
4 *228:10 *228:12 0.621444
5 *228:9 *647:Q 1.4
6 *228:9 *228:10 1.4
7 *228:8 *228:9 0.745698
8 *228:7 *228:8 1.4
9 *228:6 *228:7 0.372866
10 *228:5 *228:6 1.4
11 *228:4 *228:5 7.45698
12 *228:3 *228:4 1.4
13 *228:2 *228:3 1.1186
14 *228:1 *228:2 1.4
15 *857:D *228:1 1.4
*END

*D_NET *229 0.00460522

*CONN
*I *840:B I *C 94.685 101.935 *L 0.00184 *D MX2X1
*I *839:Q O *C 81.055 101.355 *L 0 *D SDFFRHQX1
*I *835:SI I *C 77.865 101.935 *L 0.00276 *D SDFFRHQX1
*I *895:D I *C 64.235 101.645 *L 0.00174 *D SDFFRX1

*CAP
1 *229:1 2.17156e-05
2 *229:2 2.17156e-05
3 *229:3 0.000976346
4 *229:4 0.000976346
5 *229:5 4.34311e-05
6 *229:6 6.51467e-05
7 *229:7 0.00022893
8 *229:8 2.17156e-05
9 *229:9 0.00121855
10 *229:11 2.0853e-05
11 *229:12 0.000989618
12 *229:13 2.0853e-05

*RES
1 *229:14 *895:D 1.4
2 *229:13 *835:SI 1.4
3 *229:12 *229:14 1.4
4 *229:11 *229:13 0.124283
5 *229:9 *229:12 5.84157
6 *229:9 *229:11 1.4
7 *229:8 *839:Q 1.4
8 *229:7 *229:9 1.36718
9 *229:6 *229:8 0.124289
10 *229:6 *229:7 1.4
11 *229:5 *229:6 0.248578
12 *229:4 *229:5 1.4
13 *229:3 *229:4 5.84157
14 *229:2 *229:3 1.4
15 *229:1 *229:2 0.124289
16 *840:B *229:1 1.4
*END

*D_NET *230 0.00945988

*CONN
*I *883:A I *C 9.715 107.155 *L 0.0208 *D CLKINVX8
*I *895:QN O *C 56.115 101.355 *L 0 *D SDFFRX1
*I *884:A I *C 5.365 94.105 *L 0.0208 *D CLKINVX8

*CAP
1 *230:2 1.65082e-05
2 *230:3 1.65082e-05
3 *230:4 0.000387677
4 *230:5 0.000387677
5 *230:6 3.87729e-05
6 *230:7 0.00347505
7 *230:8 0.00343628
8 *230:9 0.00054052
9 *230:11 0.00054052
10 *230:13 0.000310183
11 *230:14 0.000310183

*RES
1 *230:15 *884:A 1.4
2 *230:14 *230:15 1.4
3 *230:13 *230:14 1.98853
4 *230:11 *230:13 1.4
5 *230:10 *895:QN 1.4
6 *230:9 *230:11 3.10708
7 *230:8 *230:10 1.4
8 *230:7 *230:9 1.4
9 *230:7 *230:8 19.7611
10 *230:6 *230:7 0.248566
11 *230:5 *230:6 1.4
12 *230:4 *230:5 2.48572
13 *230:3 *230:4 1.4
14 *230:2 *230:3 0.124289
15 *230:1 *230:2 1.4
16 *883:A *230:1 1.4
*END

*D_NET *231 0.00251173

*CONN
*I *777:SI I *C 58.145 99.325 *L 0.00276 *D SDFFRHQX1
*I *835:Q O *C 69.455 101.355 *L 0 *D SDFFRHQX1
*I *856:D I *C 59.595 104.835 *L 0.00278 *D SDFFRHQX8

*CAP
1 *231:1 2.0853e-05
2 *231:2 2.0853e-05
3 *231:3 6.31671e-05
4 *231:4 6.31671e-05
5 *231:5 0.000166824
6 *231:6 0.000166824
7 *231:7 4.21114e-05
8 *231:8 0.000758006
9 *231:9 0.000715894
10 *231:10 0.000247017
11 *231:12 0.000247017

*RES
1 *231:12 *856:D 1.4
2 *231:11 *835:Q 1.4
3 *231:10 *231:12 1.49141
4 *231:9 *231:11 1.4
5 *231:8 *231:10 1.4
6 *231:8 *231:9 4.22582
7 *231:7 *231:8 0.248578
8 *231:6 *231:7 1.4
9 *231:5 *231:6 0.994265
10 *231:4 *231:5 1.4
11 *231:3 *231:4 0.372866
12 *231:2 *231:3 1.4
13 *231:1 *231:2 0.124283
14 *777:SI *231:1 1.4
*END

*D_NET *232 0.00899843

*CONN
*I *847:B I *C 40.455 21.315 *L 0.00276 *D NAND3BX1
*I *842:A0 I *C 56.405 18.415 *L 0.00162 *D AO22X1
*I *853:C I *C 59.015 18.415 *L 0.00278 *D NOR3X1
*I *845:A0 I *C 63.075 18.125 *L 0.00271 *D OAI21X1
*I *925:Q O *C 71.485 21.315 *L 0 *D SDFFRHQX4
*I *908:SI I *C 90.335 10.875 *L 0.00268 *D SDFFRHQX4

*CAP
1 *232:2 0.00110894
2 *232:3 0.00110894
3 *232:4 0.000179832
4 *232:5 0.000199813
5 *232:6 0.00018858
6 *232:7 1.99813e-05
7 *232:8 0.000481928
8 *232:10 0.000900995
9 *232:11 1.99813e-05
10 *232:12 0.000628601
11 *232:13 3.99626e-05
12 *232:14 1.99813e-05
13 *232:15 0.000179832
14 *232:16 2.09534e-05
15 *232:17 3.99626e-05
16 *232:19 0.000179832
17 *232:20 0.000539496
18 *232:23 0.000539496
19 *232:24 0.00130066
20 *232:25 0.00130066

*RES
1 *232:26 *908:SI 1.4
2 *232:25 *232:26 1.4
3 *232:24 *232:25 7.95425
4 *232:23 *232:24 1.4
5 *232:20 *232:23 3.3558
6 *232:19 *925:Q 1.4
7 *232:17 *845:A0 1.4
8 *232:16 *232:20 1.4
9 *232:15 *232:19 1.1186
10 *232:14 *853:C 1.4
11 *232:13 *232:17 0.248578
12 *232:12 *232:16 0.124289
13 *232:12 *232:15 1.4
14 *232:11 *232:14 0.124289
15 *232:10 *232:13 1.4
16 *232:10 *232:12 3.60437
17 *232:8 *232:11 1.4
18 *232:8 *232:10 1.74004
19 *232:7 *842:A0 1.4
20 *232:6 *232:8 1.1186
21 *232:5 *232:7 0.124289
22 *232:5 *232:6 1.4
23 *232:4 *232:5 1.1186
24 *232:3 *232:4 1.4
25 *232:2 *232:3 6.83565
26 *232:1 *232:2 1.4
27 *847:B *232:1 1.4
*END

*D_NET *233 0.0070755

*CONN
*I *853:B I *C 59.305 18.125 *L 0.00272 *D NOR3X1
*I *961:SI I *C 24.215 16.095 *L 0.00268 *D SDFFRHQX4
*I *937:Q O *C 72.065 16.095 *L 0 *D SDFFRHQX4
*I *855:A I *C 66.275 15.8675 *L 0.00163 *D INVXL

*CAP
1 *233:1 0.000139869
2 *233:2 0.000139869
3 *233:3 0.00245176
4 *233:4 2.09534e-05
5 *233:5 0.0024308
6 *233:6 1.99813e-05
7 *233:8 1.99813e-05
8 *233:10 0.000481928
9 *233:11 0.000900995
10 *233:12 0.000419067
11 *233:13 4.47857e-06
12 *233:14 1.99813e-05
13 *233:15 5.16758e-06
14 *233:16 1.99813e-05
15 *233:17 6.89011e-07

*RES
1 *233:17 *855:A 1.4
2 *233:16 *937:Q 1.4
3 *233:15 *233:17 0.00428582
4 *233:14 *233:16 0.124289
5 *233:13 *233:15 0.0278578
6 *233:12 *233:14 1.4
7 *233:11 *233:13 1.4
8 *233:11 *233:12 2.48578
9 *233:10 *233:11 2.85864
10 *233:8 *233:10 1.4
11 *233:7 *961:SI 1.4
12 *233:6 *233:8 0.124289
13 *233:5 *233:7 1.4
14 *233:4 *233:6 1.4
15 *233:3 *233:5 15.0384
16 *233:3 *233:4 0.124289
17 *233:2 *233:3 1.4
18 *233:1 *233:2 0.870021
19 *853:B *233:1 1.4
*END

*D_NET *234 0.00428007

*CONN
*I *853:A I *C 59.595 18.125 *L 0.00259 *D NOR3X1
*I *852:B0 I *C 67.425 18.415 *L 0.00277 *D AOI21X1
*I *908:Q O *C 80.475 10.875 *L 0 *D SDFFRHQX4
*I *937:SI I *C 81.925 16.095 *L 0.00268 *D SDFFRHQX4

*CAP
1 *234:1 1.99813e-05
2 *234:2 1.99813e-05
3 *234:3 0.000565741
4 *234:4 0.00150135
5 *234:5 0.000935609
6 *234:7 0.000159631
7 *234:9 0.0005188
8 *234:10 9.99051e-05
9 *234:11 0.000359169
10 *234:12 9.99051e-05

*RES
1 *234:14 *937:SI 1.4
2 *234:12 *234:14 1.4
3 *234:11 *908:Q 1.4
4 *234:10 *234:12 0.621416
5 *234:9 *234:11 2.23709
6 *234:9 *234:10 1.4
7 *234:7 *234:9 0.994261
8 *234:6 *852:B0 1.4
9 *234:5 *234:7 1.4
10 *234:4 *234:6 1.4
11 *234:4 *234:5 5.59295
12 *234:3 *234:4 3.3558
13 *234:2 *234:3 1.4
14 *234:1 *234:2 0.124289
15 *853:A *234:1 1.4
*END

*D_NET *235 0.00296779

*CONN
*I *563:A0 I *C 76.705 10.875 *L 0.00268 *D OAI31X1
*I *924:Q O *C 87.435 5.655 *L 0 *D SDFFRHQX4
*I *938:SI I *C 92.945 5.655 *L 0.00268 *D SDFFRHQX4

*CAP
1 *235:1 0.000319701
2 *235:2 0.000319701
3 *235:3 0.000744646
4 *235:4 0.000744646
5 *235:5 3.99077e-05
6 *235:6 3.99077e-05
7 *235:7 0.000379639
8 *235:9 0.000379639

*RES
1 *235:10 *938:SI 1.4
2 *235:9 *235:10 1.4
3 *235:7 *235:9 2.36138
4 *235:6 *924:Q 1.4
5 *235:6 *235:7 1.4
6 *235:5 *235:6 0.248565
7 *235:4 *235:5 1.4
8 *235:3 *235:4 4.59851
9 *235:2 *235:3 1.4
10 *235:1 *235:2 1.98862
11 *563:A0 *235:1 1.4
*END

*D_NET *236 0.00287232

*CONN
*I *534:SI I *C 58.145 36.685 *L 0.00276 *D SDFFRHQX1
*I *535:A0 I *C 58.435 42.195 *L 0.00265 *D AOI21X1
*I *529:Q O *C 62.785 47.705 *L 0 *D SDFFRHQX1
*I *539:A I *C 62.205 44.225 *L 0.00162 *D NOR2XL
*I *566:D I *C 65.395 42.195 *L 0.00166 *D NAND4XL

*CAP
1 *236:1 0.00042962
2 *236:2 0.00042962
3 *236:3 2.053e-05
4 *236:4 0.00032848
5 *236:5 0.00030795
6 *236:7 2.26116e-05
7 *236:9 0.000158281
8 *236:10 0.000407008
9 *236:11 0.00018477
10 *236:12 0.000271339
11 *236:13 4.106e-05
12 *236:14 0.00018477
13 *236:16 4.106e-05
14 *236:17 2.26116e-05
15 *236:19 2.26116e-05

*RES
1 *236:19 *566:D 1.4
2 *236:18 *539:A 1.4
3 *236:17 *236:19 0.124289
4 *236:16 *236:18 1.4
5 *236:14 *236:17 1.4
6 *236:13 *236:16 0.248566
7 *236:12 *529:Q 1.4
8 *236:11 *236:14 1.11855
9 *236:10 *236:13 1.4
10 *236:10 *236:12 1.49146
11 *236:9 *236:11 1.4
12 *236:9 *236:10 0.745732
13 *236:7 *236:9 0.124289
14 *236:6 *535:A0 1.4
15 *236:5 *236:7 1.4
16 *236:4 *236:6 1.4
17 *236:4 *236:5 1.86425
18 *236:3 *236:4 0.124283
19 *236:2 *236:3 1.4
20 *236:1 *236:2 2.36149
21 *534:SI *236:1 1.4
*END

*D_NET *237 0.00323187

*CONN
*I *566:A I *C 66.265 42.485 *L 0.00152 *D NAND4XL
*I *545:C I *C 65.395 47.415 *L 0.00289 *D NAND3BX1
*I *531:A0 I *C 63.075 49.445 *L 0.00265 *D AOI21X1
*I *533:A I *C 60.175 49.445 *L 0.00162 *D NOR2XL
*I *526:Q O *C 60.465 52.925 *L 0 *D SDFFRHQX1
*I *546:SI I *C 57.855 52.345 *L 0.00276 *D SDFFRHQX1

*CAP
1 *237:2 2.053e-05
2 *237:3 2.053e-05
3 *237:4 0.000384397
4 *237:5 0.000497455
5 *237:6 0.000113058
6 *237:7 8.21199e-05
7 *237:8 0.00024636
8 *237:9 8.21199e-05
9 *237:10 0.000451659
10 *237:12 4.52231e-05
11 *237:13 0.0002053
12 *237:15 4.52231e-05
13 *237:16 4.52231e-05
14 *237:18 0.000248727
15 *237:19 0.000267488
16 *237:21 6.39843e-05
17 *237:22 0.00016424
18 *237:23 2.01536e-05
19 *237:24 0.00016424
20 *237:25 2.01536e-05
21 *237:26 2.18415e-05
22 *237:28 2.18415e-05

*RES
1 *237:28 *546:SI 1.4
2 *237:27 *526:Q 1.4
3 *237:26 *237:28 0.124286
4 *237:25 *237:27 1.4
5 *237:24 *237:26 1.4
6 *237:23 *237:25 0.124283
7 *237:22 *237:24 0.994265
8 *237:21 *237:23 1.4
9 *237:19 *237:22 1.4
10 *237:19 *237:21 0.372852
11 *237:18 *533:A 1.4
12 *237:18 *237:19 1.1186
13 *237:16 *237:18 0.248578
14 *237:15 *531:A0 1.4
15 *237:13 *237:16 1.4
16 *237:12 *237:15 0.248578
17 *237:11 *545:C 1.4
18 *237:10 *237:13 1.24283
19 *237:10 *237:12 1.4
20 *237:9 *237:11 1.4
21 *237:8 *237:10 1.4914
22 *237:7 *237:9 0.497132
23 *237:6 *237:8 1.4
24 *237:5 *237:7 1.4
25 *237:5 *237:6 0.621444
26 *237:4 *237:5 2.11291
27 *237:3 *237:4 1.4
28 *237:2 *237:3 0.124283
29 *237:1 *237:2 1.4
30 *566:A *237:1 1.4
*END

*D_NET *238 0.00535751

*CONN
*I *526:SI I *C 68.875 52.345 *L 0.00276 *D SDFFRHQX1
*I *545:B I *C 65.685 47.415 *L 0.00276 *D NAND3BX1
*I *566:C I *C 65.685 42.195 *L 0.00164 *D NAND4XL
*I *542:B I *C 70.035 44.225 *L 0.00284 *D NAND2BX1
*I *574:A I *C 70.905 41.615 *L 0.00183 *D CLKXOR2X1
*I *528:Q O *C 79.315 47.705 *L 0 *D SDFFRHQX1

*CAP
1 *238:1 0.000383627
2 *238:2 0.000383627
3 *238:3 0.00022583
4 *238:4 0.00030795
5 *238:6 8.21199e-05
6 *238:8 0.000407008
7 *238:9 0.000407008
8 *238:10 8.21199e-05
9 *238:11 0.0004106
10 *238:12 0.00032848
11 *238:14 0.000203504
12 *238:16 0.00042962
13 *238:17 4.52231e-05
14 *238:18 0.000271339
15 *238:19 2.053e-05
16 *238:20 4.106e-05
17 *238:21 0.000633139
18 *238:22 2.053e-05
19 *238:23 4.106e-05
20 *238:24 0.000633139

*RES
1 *238:27 *528:Q 1.4
2 *238:26 *574:A 1.4
3 *238:25 *542:B 1.4
4 *238:24 *238:27 1.4
5 *238:23 *238:26 1.4
6 *238:22 *238:25 1.4
7 *238:21 *238:24 3.8528
8 *238:20 *238:23 0.248566
9 *238:19 *238:22 0.124283
10 *238:18 *238:21 1.4
11 *238:17 *238:20 1.4
12 *238:16 *238:19 1.4
13 *238:16 *238:18 1.49146
14 *238:14 *238:17 0.248578
15 *238:14 *238:16 0.870021
16 *238:13 *566:C 1.4
17 *238:12 *238:14 1.4
18 *238:11 *238:13 1.4
19 *238:11 *238:12 1.98853
20 *238:10 *238:11 0.497132
21 *238:9 *238:10 1.4
22 *238:8 *238:9 2.2372
23 *238:6 *238:8 1.4
24 *238:5 *545:B 1.4
25 *238:4 *238:6 0.497132
26 *238:4 *238:5 1.4
27 *238:3 *238:4 1.36711
28 *238:2 *238:3 1.4
29 *238:1 *238:2 2.11291
30 *526:SI *238:1 1.4
*END

*D_NET *239 0.00417689

*CONN
*I *566:B I *C 65.975 42.485 *L 0.00158 *D NAND4XL
*I *555:B I *C 66.555 39.005 *L 0.00284 *D NAND2BX1
*I *554:A I *C 63.655 39.005 *L 0.00162 *D NOR2XL
*I *551:A0 I *C 60.175 39.005 *L 0.00265 *D AOI21X1
*I *534:Q O *C 49.735 37.265 *L 0 *D SDFFRHQX1
*I *549:SI I *C 56.115 34.075 *L 0.00276 *D SDFFRHQX1

*CAP
1 *239:2 0.00012318
2 *239:3 0.00012318
3 *239:4 0.000271339
4 *239:5 0.000271339
5 *239:6 0.0002053
6 *239:7 0.00016424
7 *239:8 0.00028742
8 *239:11 0.000615899
9 *239:15 0.00036954
10 *239:17 0.000113058
11 *239:18 0.000113058
12 *239:19 2.053e-05
13 *239:20 0.000364809
14 *239:21 0.000271339
15 *239:22 0.000344279
16 *239:23 0.000271339
17 *239:24 2.08715e-05
18 *239:25 0.00010265
19 *239:26 2.08715e-05
20 *239:27 0.00010265

*RES
1 *239:29 *549:SI 1.4
2 *239:27 *239:29 1.4
3 *239:26 *534:Q 1.4
4 *239:25 *239:27 0.621415
5 *239:24 *239:26 0.124283
6 *239:23 *239:25 1.4
7 *239:22 *239:24 1.4
8 *239:21 *239:23 1.49146
9 *239:20 *239:22 2.11286
10 *239:20 *239:21 1.4
11 *239:19 *239:20 0.124283
12 *239:18 *239:19 1.4
13 *239:17 *239:18 0.621444
14 *239:15 *239:17 1.4
15 *239:14 *551:A0 1.4
16 *239:11 *239:15 2.2371
17 *239:11 *239:14 1.4
18 *239:10 *554:A 1.4
19 *239:9 *555:B 1.4
20 *239:8 *239:11 1.4914
21 *239:8 *239:10 1.4
22 *239:7 *239:9 1.4
23 *239:6 *239:8 0.248566
24 *239:6 *239:7 0.994265
25 *239:5 *239:6 1.4
26 *239:4 *239:5 1.49146
27 *239:3 *239:4 1.4
28 *239:2 *239:3 0.745699
29 *239:1 *239:2 1.4
30 *566:B *239:1 1.4
*END

*D_NET *240 0.0045349

*CONN
*I *537:SI I *C 70.615 28.855 *L 0.00276 *D SDFFRHQX1
*I *568:B I *C 70.325 36.685 *L 0.00167 *D NAND2XL
*I *564:A1 I *C 68.585 31.465 *L 0.00278 *D OAI211X1
*I *571:A I *C 76.415 42.195 *L 0.00273 *D CLKINVX1
*I *532:Q O *C 81.055 33.495 *L 0 *D SDFFRHQX1
*I *543:A I *C 76.705 39.295 *L 0.0017 *D MXI2XL

*CAP
1 *240:1 0.000180893
2 *240:2 0.000180893
3 *240:3 2.053e-05
4 *240:4 0.00014371
5 *240:5 0.000407008
6 *240:6 0.00012318
7 *240:7 0.00042962
8 *240:8 2.26116e-05
9 *240:9 0.00039007
10 *240:10 2.26116e-05
11 *240:11 2.26116e-05
12 *240:12 0.000431129
13 *240:15 4.106e-05
14 *240:16 0.000226116
15 *240:17 0.000226116
16 *240:18 0.000226116
17 *240:19 0.000452231
18 *240:20 0.000360608
19 *240:21 0.000226116
20 *240:22 2.053e-05
21 *240:23 0.000360608
22 *240:25 2.053e-05

*RES
1 *240:27 *543:A 1.4
2 *240:26 *532:Q 1.4
3 *240:25 *240:27 1.4
4 *240:23 *240:26 1.4
5 *240:22 *240:25 0.124283
6 *240:21 *571:A 1.4
7 *240:20 *240:23 2.23715
8 *240:19 *240:22 1.4
9 *240:19 *240:21 1.24289
10 *240:18 *240:20 1.4
11 *240:17 *240:19 1.24289
12 *240:16 *240:18 1.24289
13 *240:15 *240:17 1.4
14 *240:12 *240:16 1.4
15 *240:12 *240:15 0.248566
16 *240:11 *564:A1 1.4
17 *240:10 *568:B 1.4
18 *240:9 *240:12 2.36138
19 *240:8 *240:11 0.124289
20 *240:7 *240:10 0.124289
21 *240:7 *240:9 1.4
22 *240:6 *240:8 1.4
23 *240:5 *240:7 2.2372
24 *240:4 *240:6 0.745699
25 *240:4 *240:5 1.4
26 *240:3 *240:4 0.124283
27 *240:2 *240:3 1.4
28 *240:1 *240:2 0.99431
29 *537:SI *240:1 1.4
*END

*D_NET *241 0.00405241

*CONN
*I *564:A0 I *C 69.165 31.465 *L 0.00267 *D OAI211X1
*I *532:SI I *C 72.645 34.075 *L 0.00276 *D SDFFRHQX1
*I *568:A I *C 70.905 36.685 *L 0.00157 *D NAND2XL
*I *570:A I *C 75.835 28.565 *L 0.00273 *D INVX1
*I *538:Q O *C 81.345 26.825 *L 0 *D SDFFRHQX1
*I *557:B I *C 79.32 31.125 *L 0.00164 *D MXI2XL

*CAP
1 *241:1 4.52231e-05
2 *241:2 4.52231e-05
3 *241:3 2.053e-05
4 *241:4 2.053e-05
5 *241:5 0.000158281
6 *241:6 0.000158281
7 *241:7 0.00010265
8 *241:8 0.00022583
9 *241:9 0.00026689
10 *241:10 0.000203504
11 *241:11 0.00014371
12 *241:13 0.000203504
13 *241:14 0.000226116
14 *241:17 0.000226116
15 *241:18 8.21199e-05
16 *241:19 0.000325189
17 *241:20 0.000380198
18 *241:21 0.000203504
19 *241:22 0.000137129
20 *241:23 3.82738e-06
21 *241:24 0.000203504
22 *241:25 0.000332982
23 *241:26 4.21011e-06
24 *241:28 0.000332982
25 *241:29 3.82738e-07

*RES
1 *241:29 *557:B 1.4
2 *241:28 *538:Q 1.4
3 *241:26 *241:29 0.0021428
4 *241:25 *241:28 1.86424
5 *241:24 *570:A 1.4
6 *241:23 *241:26 0.021428
7 *241:22 *241:25 1.4
8 *241:21 *241:24 1.1186
9 *241:20 *241:23 1.4
10 *241:20 *241:22 0.870021
11 *241:19 *241:21 1.4
12 *241:19 *241:20 1.49142
13 *241:18 *241:19 0.497132
14 *241:17 *241:18 1.4
15 *241:14 *241:17 1.24289
16 *241:13 *568:A 1.4
17 *241:12 *532:SI 1.4
18 *241:11 *241:14 1.4
19 *241:10 *241:13 1.1186
20 *241:9 *241:12 1.4
21 *241:9 *241:11 0.869982
22 *241:8 *241:10 1.4
23 *241:8 *241:9 0.745699
24 *241:7 *241:8 0.621415
25 *241:6 *241:7 1.4
26 *241:5 *241:6 0.870021
27 *241:4 *241:5 1.4
28 *241:3 *241:4 0.124283
29 *241:2 *241:3 1.4
30 *241:1 *241:2 0.248578
31 *564:A0 *241:1 1.4
*END

*D_NET *242 0.0081483

*CONN
*I *550:A1N I *C 53.505 49.445 *L 0.00173 *D OAI2BB1XL
*I *548:B0 I *C 61.335 34.075 *L 0.00169 *D OAI21XL
*I *559:A I *C 68.295 39.005 *L 0.00273 *D CLKINVX1
*I *552:A1 I *C 56.985 26.535 *L 0.00163 *D AO22X1
*I *572:Y O *C 69.755 23.345 *L 0 *D NOR2BX1

*CAP
1 *242:1 2.26116e-05
2 *242:2 2.26116e-05
3 *242:3 0.00039007
4 *242:4 0.00039007
5 *242:5 0.00085924
6 *242:6 0.00085924
7 *242:7 0.00016424
8 *242:8 0.000656959
9 *242:9 0.000492719
10 *242:10 0.000361785
11 *242:11 2.26116e-05
12 *242:12 0.000904463
13 *242:13 2.26116e-05
14 *242:15 0.000565289
15 *242:17 0.00030795
16 *242:18 2.26116e-05
17 *242:19 0.00030795
18 *242:20 0.000595369
19 *242:21 4.52231e-05
20 *242:22 0.000595369
21 *242:23 4.52231e-05
22 *242:24 0.000246351
23 *242:26 0.00024704
24 *242:27 6.89011e-07

*RES
1 *242:27 *572:Y 1.4
2 *242:26 *242:27 0.00428582
3 *242:24 *242:26 1.49146
4 *242:23 *552:A1 1.4
5 *242:22 *242:24 1.4
6 *242:21 *242:23 0.248578
7 *242:20 *242:22 3.60421
8 *242:19 *242:21 1.4
9 *242:18 *242:20 1.4
10 *242:17 *242:19 1.86425
11 *242:15 *242:18 0.124289
12 *242:15 *242:17 1.4
13 *242:13 *559:A 1.4
14 *242:12 *242:15 2.98293
15 *242:12 *548:B0 1.4
16 *242:11 *242:13 0.124289
17 *242:10 *242:12 1.98862
18 *242:9 *242:11 1.4
19 *242:8 *242:10 1.4
20 *242:8 *242:9 2.98279
21 *242:7 *242:8 0.994265
22 *242:6 *242:7 1.4
23 *242:5 *242:6 4.72297
24 *242:4 *242:5 1.4
25 *242:3 *242:4 2.36138
26 *242:2 *242:3 1.4
27 *242:1 *242:2 0.124289
28 *550:A1N *242:1 1.4
*END

*D_NET *243 0.00134803

*CONN
*I *536:B0 I *C 72.645 39.005 *L 0.00262 *D OAI22X1
*I *571:Y O *C 76.0425 42.195 *L 0 *D CLKINVX1
*I *543:B I *C 77.87 39.635 *L 0.00164 *D MXI2XL

*CAP
1 *243:1 2.26116e-05
2 *243:2 2.26116e-05
3 *243:3 0.00024636
4 *243:4 0.00024636
5 *243:5 6.78347e-05
6 *243:6 0.000271339
7 *243:7 0.000209742
8 *243:8 0.00012318
9 *243:9 6.23768e-06
10 *243:10 0.00012318
11 *243:12 3.89855e-06
12 *243:13 4.2884e-06
13 *243:14 3.89855e-07

*RES
1 *243:14 *543:B 1.4
2 *243:13 *243:14 0.00214291
3 *243:12 *243:13 0.0214291
4 *243:10 *243:12 1.4
5 *243:9 *571:Y 1.4
6 *243:8 *243:10 0.745699
7 *243:7 *243:9 0.0342866
8 *243:6 *243:8 1.4
9 *243:6 *243:7 1.1186
10 *243:5 *243:6 0.372866
11 *243:4 *243:5 1.4
12 *243:3 *243:4 1.4914
13 *243:2 *243:3 1.4
14 *243:1 *243:2 0.124289
15 *536:B0 *243:1 1.4
*END

*D_NET *244 0.00227327

*CONN
*I *544:B0 I *C 72.645 31.755 *L 0.00262 *D OAI22X1
*I *561:A I *C 76.995 36.975 *L 0.00162 *D NOR2XL
*I *557:A I *C 78.155 31.465 *L 0.0017 *D MXI2XL
*I *570:Y O *C 76.2075 28.565 *L 0 *D INVX1

*CAP
1 *244:1 2.26116e-05
2 *244:2 2.26116e-05
3 *244:3 0.00030795
4 *244:4 0.00030795
5 *244:5 0.00042962
6 *244:6 0.000384397
7 *244:7 4.52231e-05
8 *244:9 0.00012318
9 *244:10 8.21199e-05
10 *244:11 4.106e-05
11 *244:13 0.000226116
12 *244:15 0.000226116
13 *244:16 2.053e-05
14 *244:17 2.053e-05
15 *244:18 6.62753e-06
16 *244:19 6.62753e-06

*RES
1 *244:19 *570:Y 1.4
2 *244:18 *244:19 0.0364295
3 *244:17 *244:18 1.4
4 *244:16 *244:17 0.124283
5 *244:15 *244:16 1.4
6 *244:13 *244:15 1.24289
7 *244:12 *557:A 1.4
8 *244:11 *244:13 1.4
9 *244:10 *244:12 1.4
10 *244:9 *244:11 0.248566
11 *244:9 *244:10 0.497132
12 *244:7 *244:9 1.4
13 *244:6 *561:A 1.4
14 *244:5 *244:7 0.248578
15 *244:5 *244:6 2.11291
16 *244:4 *244:5 1.4
17 *244:3 *244:4 1.86425
18 *244:2 *244:3 1.4
19 *244:1 *244:2 0.124289
20 *544:B0 *244:1 1.4
*END

*D_NET *245 0.0043105

*CONN
*I *557:S0 I *C 79.025 31.465 *L 0.00372 *D MXI2XL
*I *561:B I *C 76.705 36.685 *L 0.00171 *D NOR2XL
*I *562:B I *C 67.715 36.975 *L 0.00165 *D OR2X1
*I *569:Y O *C 60.175 32.045 *L 0 *D NAND2XL

*CAP
1 *245:2 1.95898e-05
2 *245:3 1.95898e-05
3 *245:4 0.000399578
4 *245:5 0.000399578
5 *245:6 0.000181479
6 *245:7 0.000817908
7 *245:9 0.00117021
8 *245:11 2.26116e-05
9 *245:12 0.000533779
10 *245:13 2.26116e-05
11 *245:14 0.000361785
12 *245:16 0.000361785

*RES
1 *245:16 *569:Y 1.4
2 *245:14 *245:16 1.98862
3 *245:13 *562:B 1.4
4 *245:12 *245:14 1.4
5 *245:11 *245:13 0.124289
6 *245:9 *245:12 3.23136
7 *245:9 *245:11 1.4
8 *245:8 *561:B 1.4
9 *245:7 *245:9 3.85278
10 *245:7 *245:8 1.4
11 *245:6 *245:7 1.11857
12 *245:5 *245:6 1.4
13 *245:4 *245:5 2.23709
14 *245:3 *245:4 1.4
15 *245:2 *245:3 0.124289
16 *245:1 *245:2 1.4
17 *557:S0 *245:1 1.4
*END

*D_NET *246 0.000583166

*CONN
*I *562:A I *C 66.845 36.685 *L 0.00173 *D OR2X1
*I *568:Y O *C 70.325 37.265 *L 0 *D NAND2XL

*CAP
1 *246:1 2.26116e-05
2 *246:2 2.26116e-05
3 *246:3 0.00024636
4 *246:4 0.00024636
5 *246:5 2.26116e-05
6 *246:6 2.26116e-05

*RES
1 *246:6 *568:Y 1.4
2 *246:5 *246:6 0.124289
3 *246:4 *246:5 1.4
4 *246:3 *246:4 1.4914
5 *246:2 *246:3 1.4
6 *246:1 *246:2 0.124289
7 *562:A *246:1 1.4
*END

*D_NET *247 0.00135612

*CONN
*I *552:A0 I *C 56.405 26.245 *L 0.00162 *D AO22X1
*I *567:Y O *C 53.795 32.045 *L 0 *D XOR2XL

*CAP
1 *247:2 2.053e-05
2 *247:3 2.053e-05
3 *247:4 0.000452231
4 *247:5 0.000452231
5 *247:6 0.0002053
6 *247:7 0.0002053

*RES
1 *247:8 *567:Y 1.4
2 *247:7 *247:8 1.4
3 *247:6 *247:7 1.24283
4 *247:5 *247:6 1.4
5 *247:4 *247:5 2.48577
6 *247:3 *247:4 1.4
7 *247:2 *247:3 0.124283
8 *247:1 *247:2 1.4
9 *552:A0 *247:1 1.4
*END

*D_NET *248 0.0017304

*CONN
*I *565:A I *C 65.395 33.785 *L 0.00273 *D INVX1
*I *556:B I *C 63.655 36.685 *L 0.00171 *D NOR2XL
*I *566:Y O *C 65.105 42.485 *L 0 *D NAND4XL

*CAP
1 *248:2 4.106e-05
2 *248:3 4.106e-05
3 *248:4 0.000248727
4 *248:5 0.000248727
5 *248:6 2.053e-05
6 *248:7 8.21199e-05
7 *248:8 0.00042962
8 *248:9 6.15899e-05
9 *248:10 0.00042962
10 *248:11 2.26116e-05
11 *248:12 4.106e-05
12 *248:13 2.26116e-05
13 *248:14 4.106e-05

*RES
1 *248:16 *566:Y 1.4
2 *248:14 *248:16 1.4
3 *248:13 *556:B 1.4
4 *248:12 *248:14 0.248566
5 *248:11 *248:13 0.124289
6 *248:10 *248:12 1.4
7 *248:9 *248:11 1.4
8 *248:8 *248:10 2.36149
9 *248:7 *248:9 0.372849
10 *248:7 *248:8 1.4
11 *248:6 *248:7 0.124283
12 *248:5 *248:6 1.4
13 *248:4 *248:5 1.36718
14 *248:3 *248:4 1.4
15 *248:2 *248:3 0.248566
16 *248:1 *248:2 1.4
17 *565:A *248:1 1.4
*END

*D_NET *249 0.000613074

*CONN
*I *564:C0 I *C 68.005 32.045 *L 0.00287 *D OAI211X1
*I *565:Y O *C 65.7675 33.785 *L 0 *D INVX1

*CAP
1 *249:1 0.000135669
2 *249:2 0.000135669
3 *249:3 0.00016424
4 *249:4 0.00016424
5 *249:5 6.62753e-06
6 *249:6 6.62753e-06

*RES
1 *249:6 *565:Y 1.4
2 *249:5 *249:6 0.0364295
3 *249:4 *249:5 1.4
4 *249:3 *249:4 0.994265
5 *249:2 *249:3 1.4
6 *249:1 *249:2 0.745732
7 *564:C0 *249:1 1.4
*END

*D_NET *250 0.00162871

*CONN
*I *572:AN I *C 70.615 23.635 *L 0.00174 *D NOR2BX1
*I *564:Y O *C 67.715 30.885 *L 0 *D OAI211X1
*I *560:B I *C 67.135 23.635 *L 0.00171 *D NOR2XL

*CAP
1 *250:1 1.99813e-05
2 *250:2 1.99813e-05
3 *250:3 0.000209534
4 *250:4 0.000209534
5 *250:5 0.000542932
6 *250:6 0.000522951
7 *250:7 1.99813e-05
8 *250:9 4.19067e-05
9 *250:10 4.19067e-05

*RES
1 *250:11 *560:B 1.4
2 *250:10 *250:11 1.4
3 *250:9 *250:10 0.248578
4 *250:7 *250:9 1.4
5 *250:6 *564:Y 1.4
6 *250:5 *250:7 0.124289
7 *250:5 *250:6 2.98293
8 *250:4 *250:5 1.4
9 *250:3 *250:4 1.24289
10 *250:2 *250:3 1.4
11 *250:1 *250:2 0.124289
12 *572:AN *250:1 1.4
*END

*D_NET *251 0.00288789

*CONN
*I *560:A I *C 67.425 23.345 *L 0.00162 *D NOR2XL
*I *572:B I *C 70.035 23.345 *L 0.0028 *D NOR2BX1
*I *563:Y O *C 74.965 11.165 *L 0 *D OAI31X1

*CAP
1 *251:1 1.99813e-05
2 *251:2 1.99813e-05
3 *251:3 0.00018858
4 *251:4 0.000544788
5 *251:5 0.000356207
6 *251:6 1.99813e-05
7 *251:7 0.000859197
8 *251:8 1.99813e-05
9 *251:9 0.000859197

*RES
1 *251:9 *563:Y 1.4
2 *251:8 *572:B 1.4
3 *251:7 *251:9 5.34442
4 *251:6 *251:8 0.124289
5 *251:5 *251:7 1.4
6 *251:4 *251:6 1.4
7 *251:4 *251:5 2.11291
8 *251:3 *251:4 1.1186
9 *251:2 *251:3 1.4
10 *251:1 *251:2 0.124289
11 *560:A *251:1 1.4
*END

*D_NET *252 0.00102067

*CONN
*I *543:S0 I *C 77.575 39.295 *L 0.00372 *D MXI2XL
*I *561:Y O *C 76.415 36.395 *L 0 *D NOR2XL

*CAP
1 *252:2 8.07096e-05
2 *252:3 8.07096e-05
3 *252:4 0.000244187
4 *252:5 0.000244187
5 *252:6 0.00016283
6 *252:7 0.00016283
7 *252:8 2.26116e-05
8 *252:9 2.26116e-05

*RES
1 *252:9 *561:Y 1.4
2 *252:8 *252:9 0.124289
3 *252:7 *252:8 1.4
4 *252:6 *252:7 0.994273
5 *252:5 *252:6 1.4
6 *252:4 *252:5 1.36711
7 *252:3 *252:4 1.4
8 *252:2 *252:3 0.497141
9 *252:1 *252:2 1.4
10 *543:S0 *252:1 1.4
*END

*D_NET *253 0.00206247

*CONN
*I *551:A1 I *C 59.885 39.005 *L 0.00278 *D AOI21X1
*I *554:B I *C 63.365 39.295 *L 0.00171 *D NOR2XL
*I *556:A I *C 63.945 36.975 *L 0.00162 *D NOR2XL
*I *562:Y O *C 66.265 36.395 *L 0 *D OR2X1
*I *555:AN I *C 65.685 39.005 *L 0.00178 *D NAND2BX1

*CAP
1 *253:1 6.78347e-05
2 *253:2 6.78347e-05
3 *253:3 0.00024636
4 *253:4 0.00024636
5 *253:5 4.52231e-05
6 *253:6 0.000203504
7 *253:8 0.000158281
8 *253:9 4.106e-05
9 *253:10 0.0002053
10 *253:11 0.00018477
11 *253:12 2.26116e-05
12 *253:13 2.053e-05
13 *253:14 6.78347e-05
14 *253:15 2.26116e-05
15 *253:16 0.000135669
16 *253:17 6.78347e-05
17 *253:19 0.000135669
18 *253:21 6.15899e-05
19 *253:22 6.15899e-05

*RES
1 *253:23 *555:AN 1.4
2 *253:22 *253:23 1.4
3 *253:21 *253:22 0.372849
4 *253:19 *253:21 1.4
5 *253:17 *562:Y 1.4
6 *253:16 *253:19 0.745732
7 *253:15 *556:A 1.4
8 *253:14 *253:17 0.372866
9 *253:13 *253:16 1.4
10 *253:12 *253:15 0.124289
11 *253:11 *253:14 1.4
12 *253:11 *253:13 0.124283
13 *253:10 *253:12 1.4
14 *253:10 *253:11 0.994265
15 *253:9 *253:10 0.248566
16 *253:8 *253:9 1.4
17 *253:6 *253:8 0.870021
18 *253:6 *554:B 1.4
19 *253:5 *253:6 0.248578
20 *253:4 *253:5 1.4
21 *253:3 *253:4 1.4914
22 *253:2 *253:3 1.4
23 *253:1 *253:2 0.372866
24 *551:A1 *253:1 1.4
*END

*D_NET *254 0.00871707

*CONN
*I *530:A0 I *C 53.505 44.225 *L 0.00271 *D OAI21X1
*I *540:A1 I *C 55.825 39.295 *L 0.00274 *D OAI21X1
*I *553:A I *C 55.245 31.465 *L 0.0017 *D MXI2XL
*I *559:Y O *C 68.6675 39.005 *L 0 *D CLKINVX1
*I *527:A0 I *C 67.135 49.445 *L 0.00271 *D OAI21X1
*I *573:A1 I *C 73.225 44.515 *L 0.00274 *D OAI21X1
*I *536:A1 I *C 73.515 39.295 *L 0.00277 *D OAI22X1
*I *544:A1 I *C 73.515 31.465 *L 0.00277 *D OAI22X1

*CAP
1 *254:1 2.26116e-05
2 *254:2 2.26116e-05
3 *254:3 8.21199e-05
4 *254:4 8.21199e-05
5 *254:5 0.000407008
6 *254:6 0.000407008
7 *254:7 6.15899e-05
8 *254:8 8.21199e-05
9 *254:9 0.000841729
10 *254:10 0.000610513
11 *254:11 0.000903319
12 *254:13 0.000610513
13 *254:14 8.21199e-05
14 *254:15 0.000791405
15 *254:17 2.053e-05
16 *254:18 2.26116e-05
17 *254:19 0.000791405
18 *254:20 2.053e-05
19 *254:21 2.92391e-05
20 *254:22 2.053e-05
21 *254:24 6.62753e-06
22 *254:25 0.00032848
23 *254:26 2.053e-05
24 *254:29 0.00034901
25 *254:31 2.053e-05
26 *254:32 0.00042962
27 *254:34 0.000610512
28 *254:35 0.00042962
29 *254:36 2.26116e-05
30 *254:37 0.000587901

*RES
1 *254:37 *544:A1 1.4
2 *254:36 *536:A1 1.4
3 *254:35 *573:A1 1.4
4 *254:34 *254:37 3.23151
5 *254:34 *254:36 0.124289
6 *254:32 *254:35 2.36149
7 *254:31 *254:34 1.4
8 *254:30 *527:A0 1.4
9 *254:29 *254:32 1.4
10 *254:29 *254:31 0.124283
11 *254:26 *254:30 1.4
12 *254:25 *254:29 1.98853
13 *254:24 *559:Y 1.4
14 *254:23 *553:A 1.4
15 *254:22 *254:26 0.124283
16 *254:21 *254:25 1.4
17 *254:21 *254:24 0.0364295
18 *254:20 *254:23 1.4
19 *254:19 *254:22 1.4
20 *254:18 *254:21 0.124289
21 *254:17 *254:20 0.124283
22 *254:15 *254:19 4.35011
23 *254:14 *254:18 1.4
24 *254:13 *254:17 1.4
25 *254:12 *540:A1 1.4
26 *254:11 *254:15 1.4
27 *254:11 *254:14 0.497132
28 *254:10 *254:13 3.3558
29 *254:9 *254:12 1.4
30 *254:9 *254:11 4.97132
31 *254:8 *254:10 1.4
32 *254:8 *254:9 0.124283
33 *254:7 *254:8 0.372849
34 *254:6 *254:7 1.4
35 *254:5 *254:6 2.2372
36 *254:4 *254:5 1.4
37 *254:3 *254:4 0.497132
38 *254:2 *254:3 1.4
39 *254:1 *254:2 0.124289
40 *530:A0 *254:1 1.4
*END

*D_NET *255 0.00168147

*CONN
*I *552:B1 I *C 57.565 26.535 *L 0.00164 *D AO22X1
*I *558:A I *C 64.235 26.535 *L 0.00273 *D CLKINVX1
*I *560:Y O *C 66.845 23.925 *L 0 *D NOR2XL

*CAP
1 *255:2 0.000472189
2 *255:3 0.000656959
3 *255:4 0.00018477
4 *255:6 0.000183777
5 *255:8 0.000183777

*RES
1 *255:8 *560:Y 1.4
2 *255:6 *255:8 1.1186
3 *255:5 *558:A 1.4
4 *255:4 *255:6 1.4
5 *255:3 *255:5 1.4
6 *255:3 *255:4 1.11855
7 *255:2 *255:3 2.85851
8 *255:1 *255:2 1.4
9 *552:B1 *255:1 1.4
*END

*D_NET *256 0.00990426

*CONN
*I *527:B0 I *C 68.005 49.445 *L 0.0028 *D OAI21X1
*I *573:B0 I *C 72.645 44.225 *L 0.0028 *D OAI21X1
*I *536:B1 I *C 72.935 39.295 *L 0.00282 *D OAI22X1
*I *544:B1 I *C 72.935 31.465 *L 0.00282 *D OAI22X1
*I *541:A I *C 63.945 31.465 *L 0.00157 *D NAND2XL
*I *558:Y O *C 63.8625 26.535 *L 0 *D CLKINVX1
*I *540:B0 I *C 56.405 39.005 *L 0.0028 *D OAI21X1
*I *553:B I *C 56.41 31.125 *L 0.00164 *D MXI2XL
*I *530:B0 I *C 54.375 44.225 *L 0.0028 *D OAI21X1
*I *550:B0 I *C 54.375 49.735 *L 0.00173 *D OAI2BB1XL

*CAP
1 *256:1 2.26116e-05
2 *256:2 2.26116e-05
3 *256:3 0.00032848
4 *256:4 0.00032848
5 *256:5 0.00042962
6 *256:6 0.000814017
7 *256:8 0.000994909
8 *256:9 2.053e-05
9 *256:10 0.000610513
10 *256:11 2.053e-05
11 *256:12 0.000636429
12 *256:14 2.053e-05
13 *256:15 0.000615899
14 *256:18 2.26116e-05
15 *256:21 0.000384397
16 *256:22 0.000533779
17 *256:23 0.000368023
18 *256:24 0.000533779
19 *256:25 6.23768e-06
20 *256:26 0.000614411
21 *256:28 0.00101752
22 *256:29 4.2884e-06
23 *256:30 0.000407008
24 *256:32 3.89855e-07
25 *256:33 0.00014371
26 *256:35 0.00014371
27 *256:36 0.00042962
28 *256:37 0.00042962

*RES
1 *256:37 *550:B0 1.4
2 *256:36 *530:B0 1.4
3 *256:36 *256:37 2.36149
4 *256:35 *256:36 1.4
5 *256:33 *256:35 0.869982
6 *256:32 *553:B 1.4
7 *256:30 *256:33 1.4
8 *256:29 *256:32 0.00214291
9 *256:28 *540:B0 1.4
10 *256:28 *256:30 2.2372
11 *256:26 *256:29 0.0214291
12 *256:26 *256:28 3.3558
13 *256:25 *558:Y 1.4
14 *256:24 *256:26 1.4
15 *256:23 *256:25 0.0342866
16 *256:22 *256:24 3.23136
17 *256:21 *256:23 1.98862
18 *256:21 *256:22 1.4
19 *256:18 *256:21 0.124289
20 *256:18 *541:A 1.4
21 *256:17 *544:B1 1.4
22 *256:15 *256:18 1.4
23 *256:14 *256:17 1.4
24 *256:13 *536:B1 1.4
25 *256:12 *256:15 3.72849
26 *256:12 *256:14 0.124283
27 *256:11 *256:13 1.4
28 *256:10 *256:12 1.4
29 *256:9 *256:11 0.124283
30 *256:8 *256:10 3.3558
31 *256:8 *256:9 1.4
32 *256:6 *256:8 2.11291
33 *256:6 *573:B0 1.4
34 *256:5 *256:6 2.36149
35 *256:4 *256:5 1.4
36 *256:3 *256:4 1.98853
37 *256:2 *256:3 1.4
38 *256:1 *256:2 0.124289
39 *527:B0 *256:1 1.4
*END

*D_NET *257 0.00074564

*CONN
*I *544:A0 I *C 73.805 31.465 *L 0.00265 *D OAI22X1
*I *557:Y O *C 78.445 32.045 *L 0 *D MXI2XL

*CAP
1 *257:1 2.26116e-05
2 *257:2 2.26116e-05
3 *257:3 0.00032801
4 *257:4 0.00032801
5 *257:5 2.21988e-05
6 *257:6 2.21988e-05

*RES
1 *257:6 *557:Y 1.4
2 *257:5 *257:6 0.124283
3 *257:4 *257:5 1.4
4 *257:3 *257:4 1.98853
5 *257:2 *257:3 1.4
6 *257:1 *257:2 0.124289
7 *544:A0 *257:1 1.4
*END

*D_NET *258 0.000526025

*CONN
*I *548:A0 I *C 62.205 34.075 *L 0.00164 *D OAI21XL
*I *556:Y O *C 63.365 36.395 *L 0 *D NOR2XL

*CAP
1 *258:2 4.106e-05
2 *258:3 4.106e-05
3 *258:4 0.000180893
4 *258:5 0.000180893
5 *258:6 4.106e-05
6 *258:7 4.106e-05

*RES
1 *258:8 *556:Y 1.4
2 *258:7 *258:8 1.4
3 *258:6 *258:7 0.248566
4 *258:5 *258:6 1.4
5 *258:4 *258:5 0.99431
6 *258:3 *258:4 1.4
7 *258:2 *258:3 0.248566
8 *258:1 *258:2 1.4
9 *548:A0 *258:1 1.4
*END

*D_NET *259 0.000537943

*CONN
*I *551:B0 I *C 59.595 39.295 *L 0.00277 *D AOI21X1
*I *554:Y O *C 63.075 39.585 *L 0 *D NOR2XL

*CAP
1 *259:1 2.26116e-05
2 *259:2 2.26116e-05
3 *259:3 0.00024636
4 *259:4 0.00024636

*RES
1 *259:5 *554:Y 1.4
2 *259:4 *259:5 1.4
3 *259:3 *259:4 1.4914
4 *259:2 *259:3 1.4
5 *259:1 *259:2 0.124289
6 *551:B0 *259:1 1.4
*END

*D_NET *260 0.00291338

*CONN
*I *574:B I *C 69.455 41.905 *L 0.00363 *D CLKXOR2X1
*I *542:AN I *C 69.165 44.225 *L 0.00178 *D NAND2BX1
*I *545:AN I *C 66.555 47.415 *L 0.00178 *D NAND3BX1
*I *555:Y O *C 66.555 38.425 *L 0 *D NAND2BX1

*CAP
1 *260:1 0.000180893
2 *260:2 0.000180893
3 *260:3 2.053e-05
4 *260:4 0.00032848
5 *260:6 0.00030795
6 *260:8 0.000700959
7 *260:9 0.000248727
8 *260:10 0.000452231
9 *260:11 0.00012318
10 *260:12 0.00012318
11 *260:13 0.00012318
12 *260:14 0.00012318

*RES
1 *260:16 *555:Y 1.4
2 *260:15 *545:AN 1.4
3 *260:14 *260:16 1.4
4 *260:13 *260:15 1.4
5 *260:12 *260:14 0.745699
6 *260:11 *260:13 0.745699
7 *260:10 *260:12 1.4
8 *260:9 *260:11 1.4
9 *260:8 *260:10 2.48577
10 *260:8 *260:9 1.36718
11 *260:6 *260:8 1.4
12 *260:5 *542:AN 1.4
13 *260:4 *260:6 1.86425
14 *260:4 *260:5 1.4
15 *260:3 *260:4 0.124283
16 *260:2 *260:3 1.4
17 *260:1 *260:2 0.99431
18 *574:B *260:1 1.4
*END

*D_NET *261 0.000394519

*CONN
*I *549:D I *C 54.665 33.785 *L 0.00276 *D SDFFRHQX1
*I *553:Y O *C 55.535 32.045 *L 0 *D MXI2XL

*CAP
1 *261:2 2.053e-05
2 *261:3 2.053e-05
3 *261:4 0.000135669
4 *261:5 0.000135669
5 *261:6 4.106e-05
6 *261:7 4.106e-05

*RES
1 *261:8 *553:Y 1.4
2 *261:7 *261:8 1.4
3 *261:6 *261:7 0.248566
4 *261:5 *261:6 1.4
5 *261:4 *261:5 0.745732
6 *261:3 *261:4 1.4
7 *261:2 *261:3 0.124283
8 *261:1 *261:2 1.4
9 *549:D *261:1 1.4
*END

*D_NET *262 0.000690869

*CONN
*I *547:D I *C 58.145 23.345 *L 0.00276 *D SDFFRHQX1
*I *552:Y O *C 59.015 26.245 *L 0 *D AO22X1

*CAP
1 *262:1 1.99813e-05
2 *262:2 1.99813e-05
3 *262:3 8.38135e-05
4 *262:4 8.38135e-05
5 *262:5 0.00022111
6 *262:6 0.00022111
7 *262:7 2.053e-05
8 *262:8 2.053e-05

*RES
1 *262:9 *552:Y 1.4
2 *262:8 *262:9 1.4
3 *262:7 *262:8 0.124283
4 *262:6 *262:7 1.4
5 *262:5 *262:6 1.36718
6 *262:4 *262:5 1.4
7 *262:3 *262:4 0.497155
8 *262:2 *262:3 1.4
9 *262:1 *262:2 0.124289
10 *547:D *262:1 1.4
*END

*D_NET *263 0.000673612

*CONN
*I *540:A0 I *C 55.535 39.005 *L 0.00271 *D OAI21X1
*I *551:Y O *C 59.015 39.005 *L 0 *D AOI21X1

*CAP
1 *263:1 4.52231e-05
2 *263:2 4.52231e-05
3 *263:3 0.00024636
4 *263:4 0.00024636
5 *263:5 4.52231e-05
6 *263:6 4.52231e-05

*RES
1 *263:6 *551:Y 1.4
2 *263:5 *263:6 0.248578
3 *263:4 *263:5 1.4
4 *263:3 *263:4 1.4914
5 *263:2 *263:3 1.4
6 *263:1 *263:2 0.248578
7 *540:A0 *263:1 1.4
*END

*D_NET *264 0.000716067

*CONN
*I *546:D I *C 56.405 52.635 *L 0.00276 *D SDFFRHQX1
*I *550:Y O *C 54.925 49.36 *L 0 *D OAI2BB1XL

*CAP
1 *264:1 0.000246417
2 *264:2 0.000246417
3 *264:3 0.00010265
4 *264:4 0.00010265
5 *264:5 6.62753e-06
6 *264:6 8.96666e-06
7 *264:7 2.33913e-06

*RES
1 *264:7 *550:Y 1.4
2 *264:6 *264:7 0.0128575
3 *264:5 *264:6 0.0364295
4 *264:4 *264:5 1.4
5 *264:3 *264:4 0.621415
6 *264:2 *264:3 1.4
7 *264:1 *264:2 1.36717
8 *546:D *264:1 1.4
*END

*D_NET *265 0.000727162

*CONN
*I *541:B I *C 63.365 31.465 *L 0.00167 *D NAND2XL
*I *548:Y O *C 61.045 33.495 *L 0 *D OAI21XL

*CAP
1 *265:2 2.053e-05
2 *265:3 2.053e-05
3 *265:4 0.000158281
4 *265:5 0.000158281
5 *265:6 0.00018477
6 *265:7 0.00018477

*RES
1 *265:8 *548:Y 1.4
2 *265:7 *265:8 1.4
3 *265:6 *265:7 1.11855
4 *265:5 *265:6 1.4
5 *265:4 *265:5 0.870021
6 *265:3 *265:4 1.4
7 *265:2 *265:3 0.124283
8 *265:1 *265:2 1.4
9 *541:B *265:1 1.4
*END

*D_NET *266 0.000842587

*CONN
*I *538:D I *C 74.385 26.535 *L 0.00276 *D SDFFRHQX1
*I *544:Y O *C 73.225 30.885 *L 0 *D OAI22X1

*CAP
1 *266:2 4.106e-05
2 *266:3 4.106e-05
3 *266:4 0.000339174
4 *266:5 0.000339174
5 *266:6 4.106e-05
6 *266:7 4.106e-05

*RES
1 *266:8 *544:Y 1.4
2 *266:7 *266:8 1.4
3 *266:6 *266:7 0.248566
4 *266:5 *266:6 1.4
5 *266:4 *266:5 1.86433
6 *266:3 *266:4 1.4
7 *266:2 *266:3 0.248566
8 *266:1 *266:2 1.4
9 *538:D *266:1 1.4
*END

*D_NET *267 0.000542106

*CONN
*I *536:A0 I *C 73.805 39.295 *L 0.00265 *D OAI22X1
*I *543:Y O *C 76.995 38.715 *L 0 *D MXI2XL

*CAP
1 *267:2 0.00022583
2 *267:3 0.00022583
3 *267:4 4.52231e-05
4 *267:5 4.52231e-05

*RES
1 *267:5 *543:Y 1.4
2 *267:4 *267:5 0.248578
3 *267:3 *267:4 1.4
4 *267:2 *267:3 1.36711
5 *267:1 *267:2 1.4
6 *536:A0 *267:1 1.4
*END

*D_NET *268 0.00170901

*CONN
*I *535:A1 I *C 58.145 42.195 *L 0.00278 *D AOI21X1
*I *539:B I *C 61.915 44.515 *L 0.00171 *D NOR2XL
*I *545:Y O *C 65.105 46.835 *L 0 *D NAND3BX1

*CAP
1 *268:2 2.053e-05
2 *268:3 2.053e-05
3 *268:4 0.000180893
4 *268:5 0.000180893
5 *268:6 0.00024636
6 *268:7 0.00024636
7 *268:8 0.000180893
8 *268:9 0.000180893
9 *268:11 0.00022583
10 *268:12 0.00022583

*RES
1 *268:13 *545:Y 1.4
2 *268:12 *268:13 1.4
3 *268:11 *268:12 1.36711
4 *268:9 *268:11 1.4
5 *268:8 *539:B 1.4
6 *268:8 *268:9 0.99431
7 *268:7 *268:8 1.4
8 *268:6 *268:7 1.4914
9 *268:5 *268:6 1.4
10 *268:4 *268:5 0.99431
11 *268:3 *268:4 1.4
12 *268:2 *268:3 0.124283
13 *268:1 *268:2 1.4
14 *535:A1 *268:1 1.4
*END

*D_NET *269 0.00136388

*CONN
*I *537:D I *C 69.165 28.565 *L 0.00276 *D SDFFRHQX1
*I *541:Y O *C 63.365 32.045 *L 0 *D NAND2XL

*CAP
1 *269:1 2.26116e-05
2 *269:2 2.26116e-05
3 *269:3 0.0004106
4 *269:4 0.0004106
5 *269:5 0.000248727
6 *269:6 0.000248727

*RES
1 *269:6 *541:Y 1.4
2 *269:5 *269:6 1.36718
3 *269:4 *269:5 1.4
4 *269:3 *269:4 2.48566
5 *269:2 *269:3 1.4
6 *269:1 *269:2 0.124289
7 *537:D *269:1 1.4
*END

*D_NET *270 0.00238678

*CONN
*I *533:B I *C 59.885 49.735 *L 0.00171 *D NOR2XL
*I *531:A1 I *C 63.365 49.445 *L 0.00278 *D AOI21X1
*I *542:Y O *C 70.035 43.645 *L 0 *D NAND2BX1

*CAP
1 *270:1 2.26116e-05
2 *270:2 2.26116e-05
3 *270:3 0.00024636
4 *270:4 0.000718549
5 *270:5 0.000472189
6 *270:7 0.000452231
7 *270:9 0.000452231

*RES
1 *270:9 *542:Y 1.4
2 *270:7 *270:9 2.48577
3 *270:6 *531:A1 1.4
4 *270:5 *270:7 1.4
5 *270:4 *270:6 1.4
6 *270:4 *270:5 2.85851
7 *270:3 *270:4 1.4914
8 *270:2 *270:3 1.4
9 *270:1 *270:2 0.124289
10 *533:B *270:1 1.4
*END

*D_NET *271 0.000271339

*CONN
*I *534:D I *C 56.695 36.975 *L 0.00276 *D SDFFRHQX1
*I *540:Y O *C 56.695 38.715 *L 0 *D OAI21X1

*CAP
1 *271:1 0.000135669
2 *271:2 0.000135669

*RES
1 *271:2 *540:Y 1.4
2 *271:1 *271:2 0.745732
3 *534:D *271:1 1.4
*END

*D_NET *272 0.000986011

*CONN
*I *535:B0 I *C 57.855 41.905 *L 0.00277 *D AOI21X1
*I *539:Y O *C 61.625 44.805 *L 0 *D NOR2XL

*CAP
1 *272:2 0.00026689
2 *272:3 0.00026689
3 *272:4 0.000226116
4 *272:5 0.000226116

*RES
1 *272:5 *539:Y 1.4
2 *272:4 *272:5 1.24289
3 *272:3 *272:4 1.4
4 *272:2 *272:3 1.61568
5 *272:1 *272:2 1.4
6 *535:B0 *272:1 1.4
*END

*D_NET *273 0.00107287

*CONN
*I *532:D I *C 74.095 33.785 *L 0.00276 *D SDFFRHQX1
*I *536:Y O *C 73.225 39.875 *L 0 *D OAI22X1

*CAP
1 *273:2 2.053e-05
2 *273:3 2.053e-05
3 *273:4 0.000474843
4 *273:5 0.000474843
5 *273:6 4.106e-05
6 *273:7 4.106e-05

*RES
1 *273:8 *536:Y 1.4
2 *273:7 *273:8 1.4
3 *273:6 *273:7 0.248566
4 *273:5 *273:6 1.4
5 *273:4 *273:5 2.61006
6 *273:3 *273:4 1.4
7 *273:2 *273:3 0.124283
8 *273:1 *273:2 1.4
9 *532:D *273:1 1.4
*END

*D_NET *274 0.000944951

*CONN
*I *530:A1 I *C 53.795 44.515 *L 0.00274 *D OAI21X1
*I *535:Y O *C 57.275 42.195 *L 0 *D AOI21X1

*CAP
1 *274:1 2.26116e-05
2 *274:2 2.26116e-05
3 *274:3 0.00024636
4 *274:4 0.00024636
5 *274:5 0.000203504
6 *274:6 0.000203504

*RES
1 *274:6 *535:Y 1.4
2 *274:5 *274:6 1.1186
3 *274:4 *274:5 1.4
4 *274:3 *274:4 1.4914
5 *274:2 *274:3 1.4
6 *274:1 *274:2 0.124289
7 *530:A1 *274:1 1.4
*END

*D_NET *275 0.000620063

*CONN
*I *531:B0 I *C 63.655 49.735 *L 0.00277 *D AOI21X1
*I *533:Y O *C 59.595 50.025 *L 0 *D NOR2XL

*CAP
1 *275:1 2.26116e-05
2 *275:2 2.26116e-05
3 *275:3 0.00028742
4 *275:4 0.00028742

*RES
1 *275:5 *533:Y 1.4
2 *275:4 *275:5 1.4
3 *275:3 *275:4 1.73996
4 *275:2 *275:3 1.4
5 *275:1 *275:2 0.124289
6 *531:B0 *275:1 1.4
*END

*D_NET *276 0.000587329

*CONN
*I *527:A1 I *C 67.425 49.735 *L 0.00274 *D OAI21X1
*I *531:Y O *C 64.235 49.445 *L 0 *D AOI21X1

*CAP
1 *276:1 4.52231e-05
2 *276:2 4.52231e-05
3 *276:3 0.00022583
4 *276:4 0.00022583
5 *276:5 2.26116e-05
6 *276:6 2.26116e-05

*RES
1 *276:6 *531:Y 1.4
2 *276:5 *276:6 0.124289
3 *276:4 *276:5 1.4
4 *276:3 *276:4 1.36711
5 *276:2 *276:3 1.4
6 *276:1 *276:2 0.248578
7 *527:A1 *276:1 1.4
*END

*D_NET *277 0.000706918

*CONN
*I *529:D I *C 55.825 47.415 *L 0.00276 *D SDFFRHQX1
*I *530:Y O *C 54.665 43.935 *L 0 *D OAI21X1

*CAP
1 *277:2 2.053e-05
2 *277:3 2.053e-05
3 *277:4 0.000271339
4 *277:5 0.000271339
5 *277:6 6.15899e-05
6 *277:7 6.15899e-05

*RES
1 *277:8 *530:Y 1.4
2 *277:7 *277:8 1.4
3 *277:6 *277:7 0.372849
4 *277:5 *277:6 1.4
5 *277:4 *277:5 1.49146
6 *277:3 *277:4 1.4
7 *277:2 *277:3 0.124283
8 *277:1 *277:2 1.4
9 *529:D *277:1 1.4
*END

*D_NET *278 0.000660484

*CONN
*I *526:D I *C 67.425 52.635 *L 0.00276 *D SDFFRHQX1
*I *527:Y O *C 68.295 49.155 *L 0 *D OAI21X1

*CAP
1 *278:2 2.01536e-05
2 *278:3 2.01536e-05
3 *278:4 0.000269029
4 *278:5 0.000269029
5 *278:6 4.106e-05
6 *278:7 4.106e-05

*RES
1 *278:8 *527:Y 1.4
2 *278:7 *278:8 1.4
3 *278:6 *278:7 0.248566
4 *278:5 *278:6 1.4
5 *278:4 *278:5 1.49146
6 *278:3 *278:4 1.4
7 *278:2 *278:3 0.124283
8 *278:1 *278:2 1.4
9 *526:D *278:1 1.4
*END

*D_NET *279 0.000649205

*CONN
*I *573:A0 I *C 73.515 44.225 *L 0.00271 *D OAI21X1
*I *574:Y O *C 71.485 42.485 *L 0 *D CLKXOR2X1

*CAP
1 *279:1 2.26116e-05
2 *279:2 2.26116e-05
3 *279:3 0.00014371
4 *279:4 0.00014371
5 *279:5 0.000158281
6 *279:6 0.000158281

*RES
1 *279:6 *574:Y 1.4
2 *279:5 *279:6 0.870021
3 *279:4 *279:5 1.4
4 *279:3 *279:4 0.869982
5 *279:2 *279:3 1.4
6 *279:1 *279:2 0.124289
7 *573:A0 *279:1 1.4
*END

*D_NET *280 0.000542678

*CONN
*I *528:D I *C 72.355 47.415 *L 0.00276 *D SDFFRHQX1
*I *573:Y O *C 72.355 43.935 *L 0 *D OAI21X1

*CAP
1 *280:1 0.000271339
2 *280:2 0.000271339

*RES
1 *280:2 *573:Y 1.4
2 *280:1 *280:2 1.49146
3 *528:D *280:1 1.4
*END

*D_NET *281 0.00353227

*CONN
*I *631:A0 I *C 28.275 44.515 *L 0.00259 *D AOI32X1
*I *599:SI I *C 28.275 47.125 *L 0.00276 *D SDFFRHQX1
*I *605:A0 I *C 28.565 42.195 *L 0.00155 *D AO21X1
*I *620:B0 I *C 25.085 42.195 *L 0.00278 *D AOI211X1
*I *643:A I *C 23.065 44.4525 *L 0.00163 *D INVXL
*I *636:A I *C 22.475 41.905 *L 0.00157 *D NAND2XL
*I *598:Q O *C 21.315 49.155 *L 0 *D SDFFRHQX1

*CAP
1 *281:1 0.000187843
2 *281:2 0.000187843
3 *281:4 1.99735e-05
4 *281:5 1.99735e-05
5 *281:6 0.000354815
6 *281:7 0.000396558
7 *281:8 3.99469e-05
8 *281:9 4.17429e-05
9 *281:10 3.99469e-05
10 *281:11 0.000198583
11 *281:13 0.000336095
12 *281:15 4.48421e-05
13 *281:16 0.000137512
14 *281:17 4.48421e-05
15 *281:18 2.24211e-05
16 *281:20 0.000219572
17 *281:21 0.000561299
18 *281:22 3.9289e-05
19 *281:23 0.000363376
20 *281:24 7.7314e-07
21 *281:25 3.9289e-05
22 *281:26 0.000117867
23 *281:29 0.000117867

*RES
1 *281:31 *598:Q 1.4
2 *281:29 *281:31 1.4
3 *281:28 *636:A 1.4
4 *281:26 *281:29 0.745732
5 *281:25 *281:28 1.4
6 *281:24 *643:A 1.4
7 *281:23 *281:26 1.4
8 *281:22 *281:25 0.248578
9 *281:21 *281:24 0.00428582
10 *281:21 *281:23 2.01434
11 *281:20 *281:22 1.4
12 *281:20 *281:21 1.09288
13 *281:18 *281:20 0.124289
14 *281:17 *620:B0 1.4
15 *281:16 *281:18 1.4
16 *281:15 *281:17 0.248578
17 *281:13 *281:16 0.870021
18 *281:13 *281:15 1.4
19 *281:12 *605:A0 1.4
20 *281:11 *281:13 1.24289
21 *281:10 *281:12 1.4
22 *281:9 *281:11 1.4
23 *281:8 *281:10 0.248578
24 *281:7 *281:9 0.248565
25 *281:7 *281:8 1.4
26 *281:6 *281:7 2.11281
27 *281:5 *281:6 1.4
28 *281:4 *281:5 0.124289
29 *281:2 *281:4 1.4
30 *281:2 *599:SI 1.4
31 *281:1 *281:2 1.11854
32 *631:A0 *281:1 1.4
*END

*D_NET *282 0.0159973

*CONN
*I *576:D I *C 74.965 89.175 *L 0.00276 *D SDFFRHQX1
*I *578:B I *C 64.235 68.295 *L 0.00165 *D OR2X1
*I *579:SI I *C 51.185 47.125 *L 0.00276 *D SDFFRHQX1
*I *616:B0 I *C 41.325 44.225 *L 0.0028 *D OAI21X1
*I *602:Q O *C 52.635 38.715 *L 0 *D SDFFRHQX1
*I *635:B0 I *C 31.755 34.365 *L 0.00276 *D AOI2BB1X1
*I *640:A I *C 43.645 31.755 *L 0.00273 *D CLKINVX1
*I *618:B0 I *C 40.745 31.755 *L 0.00266 *D AOI32X1

*CAP
1 *282:1 0.00146681
2 *282:2 0.00146681
3 *282:3 0.000745684
4 *282:4 0.000745684
5 *282:5 4.21428e-05
6 *282:6 0.00153947
7 *282:8 0.00149733
8 *282:9 0.000901928
9 *282:10 0.000901928
10 *282:11 6.26144e-05
11 *282:12 0.000271329
12 *282:13 1.99735e-05
13 *282:14 0.000208715
14 *282:15 1.99735e-05
15 *282:16 1.99735e-05
16 *282:18 0.000619178
17 *282:20 0.000396558
18 *282:21 0.000679098
19 *282:22 0.000396558
20 *282:23 0.000709629
21 *282:24 7.98939e-05
22 *282:25 0.000100702
23 *282:26 0.000709629
24 *282:28 0.000100702
25 *282:29 1.99735e-05
26 *282:32 0.000739019
27 *282:34 0.000166972
28 *282:35 0.000719045
29 *282:36 0.000187843
30 *282:38 9.98674e-05
31 *282:39 2.08715e-05
32 *282:41 9.98674e-05
33 *282:42 9.98674e-05
34 *282:43 2.08715e-05
35 *282:44 9.98674e-05
36 *282:45 2.08715e-05

*RES
1 *282:46 *618:B0 1.4
2 *282:45 *640:A 1.4
3 *282:44 *282:46 1.4
4 *282:43 *282:45 0.124283
5 *282:42 *282:44 0.621444
6 *282:41 *282:43 1.4
7 *282:39 *282:42 1.4
8 *282:38 *282:41 0.621444
9 *282:37 *635:B0 1.4
10 *282:36 *282:39 0.124283
11 *282:36 *282:38 1.4
12 *282:35 *282:37 1.4
13 *282:34 *282:36 0.994261
14 *282:32 *282:35 4.4744
15 *282:32 *282:34 1.4
16 *282:31 *602:Q 1.4
17 *282:29 *282:32 0.124289
18 *282:28 *282:31 1.4
19 *282:27 *616:B0 1.4
20 *282:26 *282:29 1.4
21 *282:25 *282:28 0.621435
22 *282:24 *282:27 1.4
23 *282:23 *282:26 4.22561
24 *282:22 *282:25 1.4
25 *282:21 *282:24 0.497155
26 *282:21 *282:23 1.4
27 *282:20 *282:22 2.36137
28 *282:18 *282:21 3.72866
29 *282:18 *282:20 1.4
30 *282:17 *579:SI 1.4
31 *282:16 *282:18 0.124289
32 *282:15 *282:17 1.4
33 *282:14 *282:16 1.4
34 *282:13 *282:15 0.124289
35 *282:12 *282:14 1.24283
36 *282:12 *282:13 1.4
37 *282:11 *282:12 0.372848
38 *282:10 *282:11 1.4
39 *282:9 *282:10 5.46847
40 *282:8 *282:9 1.4
41 *282:6 *282:8 8.6999
42 *282:6 *578:B 1.4
43 *282:5 *282:6 0.248566
44 *282:4 *282:5 1.4
45 *282:3 *282:4 4.59848
46 *282:2 *282:3 1.4
47 *282:1 *282:2 8.69981
48 *576:D *282:1 1.4
*END

*D_NET *283 0.0137925

*CONN
*I *577:D I *C 70.325 85.985 *L 0.00276 *D SDFFRHQX1
*I *578:A I *C 65.105 68.005 *L 0.00173 *D OR2X1
*I *602:SI I *C 44.225 39.295 *L 0.00276 *D SDFFRHQX1
*I *603:Q O *C 38.715 37.265 *L 0 *D SDFFRHQX1
*I *621:B0 I *C 39.585 33.785 *L 0.0028 *D OAI21X1
*I *644:A I *C 37.555 44.225 *L 0.00273 *D CLKINVX1
*I *628:B I *C 34.655 39.005 *L 0.00276 *D NAND3BX1

*CAP
1 *283:1 0.00127957
2 *283:2 0.00127957
3 *283:3 0.000362765
4 *283:4 0.00174678
5 *283:5 2.10714e-05
6 *283:6 0.00138402
7 *283:7 2.10714e-05
8 *283:8 0.00211067
9 *283:10 0.00211067
10 *283:11 9.98674e-05
11 *283:12 0.00045939
12 *283:14 0.000359523
13 *283:16 4.17429e-05
14 *283:17 0.0002922
15 *283:18 1.99735e-05
16 *283:19 0.000250457
17 *283:20 9.98674e-05
18 *283:21 3.99469e-05
19 *283:22 0.000104357
20 *283:23 7.98939e-05
21 *283:24 3.99469e-05
22 *283:25 0.000104357
23 *283:26 6.26144e-05
24 *283:27 0.000104357
25 *283:29 0.000396558
26 *283:30 0.000104357
27 *283:31 0.000333943
28 *283:32 0.000199735
29 *283:35 0.000199735
30 *283:36 4.17429e-05
31 *283:37 4.17429e-05

*RES
1 *283:37 *628:B 1.4
2 *283:36 *283:37 0.248565
3 *283:35 *283:36 1.4
4 *283:32 *283:35 1.24289
5 *283:31 *644:A 1.4
6 *283:30 *621:B0 1.4
7 *283:29 *283:32 1.4
8 *283:29 *283:31 1.98852
9 *283:27 *283:30 0.621413
10 *283:26 *283:29 0.372848
11 *283:25 *603:Q 1.4
12 *283:24 *283:27 1.4
13 *283:23 *283:26 1.4
14 *283:22 *283:25 0.621413
15 *283:21 *283:24 0.248578
16 *283:20 *283:23 0.497155
17 *283:20 *283:22 1.4
18 *283:19 *283:21 1.4
19 *283:18 *283:20 0.124289
20 *283:17 *283:19 1.49139
21 *283:17 *283:18 1.4
22 *283:16 *283:17 0.248565
23 *283:14 *283:16 1.4
24 *283:13 *602:SI 1.4
25 *283:12 *283:14 2.2372
26 *283:12 *283:13 1.4
27 *283:11 *283:12 0.621444
28 *283:10 *283:11 1.4
29 *283:8 *283:10 12.4283
30 *283:7 *578:A 1.4
31 *283:6 *283:8 1.4
32 *283:5 *283:7 0.124283
33 *283:4 *283:6 8.3271
34 *283:4 *283:5 1.4
35 *283:3 *283:4 2.2371
36 *283:2 *283:3 1.4
37 *283:1 *283:2 7.58127
38 *577:D *283:1 1.4
*END

*D_NET *284 0.00315529

*CONN
*I *585:S0 I *C 45.675 52.345 *L 0.00372 *D MXI2XL
*I *582:A0 I *C 44.805 49.445 *L 0.00158 *D AOI21XL
*I *627:A1 I *C 39.005 49.445 *L 0.00269 *D AOI31X1
*I *580:Q O *C 39.875 54.375 *L 0 *D SDFFRHQX1
*I *626:A1 I *C 39.585 47.415 *L 0.00269 *D AOI31X1
*I *584:SI I *C 37.845 54.955 *L 0.00276 *D SDFFRHQX1

*CAP
1 *284:2 2.16526e-05
2 *284:3 2.16526e-05
3 *284:4 0.000229798
4 *284:5 0.000229798
5 *284:6 3.99469e-05
6 *284:7 0.000359523
7 *284:8 2.08715e-05
8 *284:9 0.000399469
9 *284:10 2.08715e-05
10 *284:11 0.000378865
11 *284:12 7.98939e-05
12 *284:14 0.000378865
13 *284:15 0.0001461
14 *284:16 2.16526e-05
15 *284:17 2.08715e-05
16 *284:18 0.000125229
17 *284:19 2.16526e-05
18 *284:21 3.99469e-05
19 *284:22 8.51813e-05
20 *284:23 3.99469e-05
21 *284:24 8.51813e-05
22 *284:27 0.000151568
23 *284:29 0.000151568
24 *284:30 4.25907e-05
25 *284:31 4.25907e-05

*RES
1 *284:31 *584:SI 1.4
2 *284:30 *284:31 0.248565
3 *284:29 *284:30 1.4
4 *284:27 *284:29 0.870021
5 *284:26 *626:A1 1.4
6 *284:24 *284:27 1.4
7 *284:23 *284:26 1.4
8 *284:22 *580:Q 1.4
9 *284:22 *284:24 0.497131
10 *284:21 *284:23 0.248578
11 *284:19 *284:22 1.4
12 *284:18 *284:21 1.4
13 *284:17 *627:A1 1.4
14 *284:16 *284:19 0.124289
15 *284:15 *284:18 0.745696
16 *284:15 *284:17 0.124283
17 *284:14 *284:16 1.4
18 *284:12 *284:15 1.4
19 *284:11 *284:14 2.23709
20 *284:10 *582:A0 1.4
21 *284:9 *284:12 0.497155
22 *284:9 *284:11 1.4
23 *284:8 *284:10 0.124283
24 *284:7 *284:9 1.98862
25 *284:7 *284:8 1.4
26 *284:6 *284:7 0.248578
27 *284:5 *284:6 1.4
28 *284:4 *284:5 1.36711
29 *284:3 *284:4 1.4
30 *284:2 *284:3 0.124289
31 *284:1 *284:2 1.4
32 *585:S0 *284:1 1.4
*END

*D_NET *285 0.00387321

*CONN
*I *646:AN I *C 39.005 52.635 *L 0.00178 *D NAND2BX1
*I *627:A0 I *C 38.715 49.735 *L 0.00261 *D AOI31X1
*I *589:A0 I *C 34.365 49.445 *L 0.00158 *D AOI21XL
*I *590:A I *C 34.365 47.415 *L 0.00162 *D NOR2XL
*I *592:B I *C 34.075 52.635 *L 0.00284 *D NAND2BX1
*I *588:SI I *C 35.235 60.175 *L 0.00276 *D SDFFRHQX1
*I *584:Q O *C 29.435 54.375 *L 0 *D SDFFRHQX1

*CAP
1 *285:2 2.16526e-05
2 *285:3 2.16526e-05
3 *285:4 0.00020935
4 *285:5 0.00020935
5 *285:7 0.000299602
6 *285:8 0.000299602
7 *285:9 0.000230222
8 *285:10 0.000358418
9 *285:11 0.000166972
10 *285:12 0.000149067
11 *285:13 2.16526e-05
12 *285:15 0.0001461
13 *285:16 0.000433052
14 *285:17 2.16526e-05
15 *285:19 6.49577e-05
16 *285:20 0.000368094
17 *285:22 0.000404611
18 *285:23 2.12953e-05
19 *285:25 0.000404611
20 *285:26 2.12953e-05

*RES
1 *285:26 *584:Q 1.4
2 *285:25 *588:SI 1.4
3 *285:23 *285:26 0.124283
4 *285:22 *285:25 2.36137
5 *285:21 *592:B 1.4
6 *285:20 *285:23 1.4
7 *285:19 *285:22 1.4
8 *285:17 *285:21 1.4
9 *285:16 *285:20 2.11291
10 *285:16 *285:19 0.372866
11 *285:15 *590:A 1.4
12 *285:13 *285:17 0.124289
13 *285:12 *285:16 1.4
14 *285:11 *285:15 0.869979
15 *285:11 *589:A0 1.4
16 *285:10 *285:13 1.4
17 *285:10 *285:12 0.869979
18 *285:9 *285:11 0.124283
19 *285:9 *285:10 1.24283
20 *285:8 *285:9 1.4
21 *285:7 *285:8 1.86433
22 *285:5 *285:7 1.4
23 *285:5 *627:A0 1.4
24 *285:4 *285:5 1.24283
25 *285:3 *285:4 1.4
26 *285:2 *285:3 0.124289
27 *285:1 *285:2 1.4
28 *646:AN *285:1 1.4
*END

*D_NET *286 0.00420675

*CONN
*I *645:B I *C 42.485 68.295 *L 0.00284 *D NAND2BX1
*I *624:A I *C 45.385 65.105 *L 0.00162 *D NOR2XL
*I *622:A0 I *C 42.775 63.075 *L 0.00158 *D AOI21XL
*I *632:AN I *C 40.745 57.855 *L 0.00178 *D NAND2BX1
*I *580:SI I *C 48.285 54.955 *L 0.00276 *D SDFFRHQX1
*I *601:Q O *C 50.895 59.595 *L 0 *D SDFFRHQX1

*CAP
1 *286:1 0.000234249
2 *286:2 0.000234249
3 *286:3 2.16526e-05
4 *286:4 0.000216526
5 *286:5 0.000194873
6 *286:6 0.000149067
7 *286:8 0.000532383
8 *286:11 0.000383316
9 *286:12 0.000541314
10 *286:13 0.000411399
11 *286:14 0.000151568
12 *286:15 0.000127772
13 *286:16 2.16526e-05
14 *286:18 0.000127772
15 *286:19 0.000212953
16 *286:21 0.000216526
17 *286:22 0.000212953
18 *286:23 0.000216526

*RES
1 *286:25 *601:Q 1.4
2 *286:23 *286:25 1.4
3 *286:22 *580:SI 1.4
4 *286:21 *286:23 1.24289
5 *286:19 *286:22 1.24283
6 *286:18 *286:21 1.4
7 *286:17 *632:AN 1.4
8 *286:16 *286:19 1.4
9 *286:15 *286:18 0.745696
10 *286:14 *286:17 1.4
11 *286:13 *286:16 0.124289
12 *286:13 *286:15 1.4
13 *286:12 *286:14 0.870021
14 *286:12 *286:13 2.2372
15 *286:11 *286:12 1.4
16 *286:8 *286:11 2.23709
17 *286:8 *622:A0 1.4
18 *286:7 *624:A 1.4
19 *286:6 *286:8 0.869979
20 *286:5 *286:7 1.4
21 *286:4 *286:6 1.4
22 *286:4 *286:5 1.1186
23 *286:3 *286:4 0.124289
24 *286:2 *286:3 1.4
25 *286:1 *286:2 1.36711
26 *645:B *286:1 1.4
*END

*D_NET *287 0.000964383

*CONN
*I *626:A2 I *C 39.005 47.415 *L 0.00276 *D AOI31X1
*I *646:Y O *C 39.875 53.215 *L 0 *D NAND2BX1

*CAP
1 *287:2 1.99735e-05
2 *287:3 1.99735e-05
3 *287:4 0.000418913
4 *287:5 0.000418913
5 *287:6 4.33052e-05
6 *287:7 4.33052e-05

*RES
1 *287:8 *646:Y 1.4
2 *287:7 *287:8 1.4
3 *287:6 *287:7 0.248578
4 *287:5 *287:6 1.4
5 *287:4 *287:5 2.48565
6 *287:3 *287:4 1.4
7 *287:2 *287:3 0.124289
8 *287:1 *287:2 1.4
9 *626:A2 *287:1 1.4
*END

*D_NET *288 0.00154684

*CONN
*I *610:AN I *C 40.455 65.105 *L 0.00178 *D NAND2BX1
*I *609:B I *C 38.425 68.005 *L 0.00171 *D NOR2XL
*I *645:Y O *C 42.485 68.875 *L 0 *D NAND2BX1
*I *604:A1 I *C 41.905 70.035 *L 0.00163 *D AOI21XL

*CAP
1 *288:2 8.66103e-05
2 *288:3 8.66103e-05
3 *288:4 0.000212953
4 *288:5 0.000234249
5 *288:6 2.12953e-05
6 *288:7 6.49577e-05
7 *288:8 0.000216526
8 *288:9 6.49577e-05
9 *288:10 0.000216526
10 *288:12 4.25907e-05
11 *288:14 0.000127772
12 *288:15 2.16526e-05
13 *288:16 8.51813e-05
14 *288:17 2.16526e-05
15 *288:18 2.16526e-05
16 *288:20 2.16526e-05

*RES
1 *288:22 *604:A1 1.4
2 *288:20 *288:22 1.4
3 *288:19 *645:Y 1.4
4 *288:18 *288:20 0.124289
5 *288:17 *288:19 1.4
6 *288:16 *288:18 1.4
7 *288:15 *288:17 0.124289
8 *288:14 *288:16 0.497131
9 *288:14 *288:15 1.4
10 *288:12 *288:14 0.248565
11 *288:11 *609:B 1.4
12 *288:10 *288:12 1.4
13 *288:9 *288:11 1.4
14 *288:8 *288:10 1.24289
15 *288:7 *288:9 0.372866
16 *288:6 *288:8 1.4
17 *288:5 *288:7 1.4
18 *288:5 *288:6 0.124283
19 *288:4 *288:5 1.24283
20 *288:3 *288:4 1.4
21 *288:2 *288:3 0.497155
22 *288:1 *288:2 1.4
23 *610:AN *288:1 1.4
*END

*D_NET *289 0.00121424

*CONN
*I *637:B I *C 35.815 31.465 *L 0.00167 *D NAND2XL
*I *618:A1 I *C 39.005 32.045 *L 0.00274 *D AOI32X1
*I *640:Y O *C 44.0175 31.755 *L 0 *D CLKINVX1

*CAP
1 *289:1 2.08715e-05
2 *289:2 2.08715e-05
3 *289:3 0.000219708
4 *289:4 0.000559257
5 *289:5 0.000339549
6 *289:6 2.08715e-05
7 *289:7 6.11749e-06
8 *289:8 2.08715e-05
9 *289:9 6.11749e-06

*RES
1 *289:9 *640:Y 1.4
2 *289:8 *618:A1 1.4
3 *289:7 *289:9 0.0364277
4 *289:6 *289:8 0.124283
5 *289:5 *289:7 1.4
6 *289:4 *289:6 1.4
7 *289:4 *289:5 2.11291
8 *289:3 *289:4 1.36718
9 *289:2 *289:3 1.4
10 *289:1 *289:2 0.124283
11 *637:B *289:1 1.4
*END

*D_NET *290 0.00406217

*CONN
*I *618:A2 I *C 39.295 32.045 *L 0.00279 *D AOI32X1
*I *635:A1N I *C 30.595 33.785 *L 0.00169 *D AOI2BB1X1
*I *644:Y O *C 37.9275 44.225 *L 0 *D CLKINVX1
*I *623:A0 I *C 35.525 36.685 *L 0.00257 *D OAI32X1
*I *626:B0 I *C 38.715 47.415 *L 0.00277 *D AOI31X1

*CAP
1 *290:2 0.000119841
2 *290:3 0.000119841
3 *290:4 0.000125229
4 *290:5 0.000125229
5 *290:6 0.000499337
6 *290:7 1.99735e-05
7 *290:8 0.000479363
8 *290:9 0.000208715
9 *290:11 0.000751372
10 *290:13 0.000653132
11 *290:14 0.000159788
12 *290:15 6.11749e-06
13 *290:16 0.000104357
14 *290:17 0.000159788
15 *290:19 3.99469e-05
16 *290:21 3.99469e-05
17 *290:23 0.000125229
18 *290:24 0.000125229
19 *290:25 9.98674e-05
20 *290:26 9.98674e-05

*RES
1 *290:27 *626:B0 1.4
2 *290:26 *290:27 1.4
3 *290:25 *290:26 0.621444
4 *290:24 *290:25 1.4
5 *290:23 *290:24 0.745696
6 *290:21 *290:23 1.4
7 *290:20 *623:A0 1.4
8 *290:19 *290:21 0.248578
9 *290:17 *290:20 1.4
10 *290:16 *290:19 1.4
11 *290:15 *644:Y 1.4
12 *290:14 *290:17 0.99431
13 *290:13 *290:16 0.621413
14 *290:13 *290:15 0.0364277
15 *290:11 *290:14 1.4
16 *290:11 *290:13 3.23135
17 *290:10 *635:A1N 1.4
18 *290:9 *290:11 1.24283
19 *290:8 *290:10 1.4
20 *290:7 *290:9 1.4
21 *290:6 *290:8 2.98293
22 *290:6 *290:7 0.124289
23 *290:5 *290:6 1.4
24 *290:4 *290:5 0.745696
25 *290:3 *290:4 1.4
26 *290:2 *290:3 0.745733
27 *290:1 *290:2 1.4
28 *618:A2 *290:1 1.4
*END

*D_NET *291 0.000617684

*CONN
*I *631:B1 I *C 26.825 44.225 *L 0.00284 *D AOI32X1
*I *643:Y O *C 23.4275 44.515 *L 0 *D INVXL

*CAP
1 *291:1 2.08715e-05
2 *291:2 2.08715e-05
3 *291:3 0.000236557
4 *291:4 0.000236557
5 *291:5 4.48421e-05
6 *291:6 5.14138e-05
7 *291:7 6.57169e-06

*RES
1 *291:7 *643:Y 1.4
2 *291:6 *291:7 0.0364295
3 *291:5 *291:6 0.248578
4 *291:4 *291:5 1.4
5 *291:3 *291:4 1.49147
6 *291:2 *291:3 1.4
7 *291:1 *291:2 0.124283
8 *631:B1 *291:1 1.4
*END

*D_NET *292 0.00239561

*CONN
*I *623:B0 I *C 33.785 36.975 *L 0.00272 *D OAI32X1
*I *619:A0 I *C 33.495 42.195 *L 0.00271 *D OAI21X1
*I *630:A0N I *C 31.175 39.005 *L 0.00173 *D OAI2BB1X1
*I *642:Y O *C 28.6475 39.005 *L 0 *D CLKINVX1
*I *631:A2 I *C 27.695 43.935 *L 0.00279 *D AOI32X1

*CAP
1 *292:1 0.000125229
2 *292:2 0.000125229
3 *292:3 1.99735e-05
4 *292:4 0.000179761
5 *292:5 0.000250457
6 *292:6 0.000339549
7 *292:7 0.000250457
8 *292:8 2.08715e-05
9 *292:9 0.000179761
10 *292:11 2.08715e-05
11 *292:12 2.08715e-05
12 *292:14 2.69889e-05
13 *292:15 6.11749e-06
14 *292:16 5.99204e-05
15 *292:18 5.99204e-05
16 *292:19 0.000354815
17 *292:20 0.000354815

*RES
1 *292:20 *631:A2 1.4
2 *292:19 *292:20 2.11281
3 *292:18 *292:19 1.4
4 *292:16 *292:18 0.372866
5 *292:15 *642:Y 1.4
6 *292:14 *292:16 1.4
7 *292:14 *292:15 0.0364277
8 *292:12 *292:14 0.124283
9 *292:11 *630:A0N 1.4
10 *292:9 *292:12 1.4
11 *292:8 *292:11 0.124283
12 *292:7 *619:A0 1.4
13 *292:6 *292:9 1.1186
14 *292:6 *292:8 1.4
15 *292:5 *292:7 1.49139
16 *292:4 *292:6 0.99431
17 *292:4 *292:5 1.4
18 *292:3 *292:4 0.124289
19 *292:2 *292:3 1.4
20 *292:1 *292:2 0.745696
21 *623:B0 *292:1 1.4
*END

*D_NET *293 0.00167988

*CONN
*I *631:A1 I *C 27.985 43.935 *L 0.00274 *D AOI32X1
*I *606:B0 I *C 32.335 44.225 *L 0.00262 *D OAI22X1
*I *641:Y O *C 20.5275 44.225 *L 0 *D INVX1

*CAP
1 *293:1 2.08715e-05
2 *293:2 2.08715e-05
3 *293:3 0.000812498
4 *293:4 0.000299602
5 *293:5 0.000512896
6 *293:7 6.57169e-06
7 *293:9 6.57169e-06

*RES
1 *293:9 *641:Y 1.4
2 *293:7 *293:9 0.0364295
3 *293:6 *606:B0 1.4
4 *293:5 *293:7 1.4
5 *293:4 *293:6 1.4
6 *293:3 *293:5 3.23151
7 *293:3 *293:4 1.86433
8 *293:2 *293:3 1.4
9 *293:1 *293:2 0.124283
10 *631:A1 *293:1 1.4
*END

*D_NET *294 0.00219142

*CONN
*I *645:AN I *C 43.355 68.295 *L 0.00178 *D NAND2BX1
*I *622:A1 I *C 43.355 63.365 *L 0.00163 *D AOI21XL
*I *639:Y O *C 51.185 63.365 *L 0 *D NAND2XL
*I *624:B I *C 45.675 65.395 *L 0.00171 *D NOR2XL

*CAP
1 *294:1 0.000362021
2 *294:2 0.000362021
3 *294:3 0.000173221
4 *294:5 0.00058462
5 *294:6 0.000411399
6 *294:7 0.000149067
7 *294:9 0.000149067

*RES
1 *294:9 *624:B 1.4
2 *294:8 *639:Y 1.4
3 *294:7 *294:9 0.869979
4 *294:6 *294:8 1.4
5 *294:5 *294:7 1.4
6 *294:5 *294:6 2.36149
7 *294:3 *294:5 0.99431
8 *294:2 *622:A1 1.4
9 *294:2 *294:3 1.4
10 *294:1 *294:2 2.11281
11 *645:AN *294:1 1.4
*END

*D_NET *295 0.001578

*CONN
*I *646:B I *C 39.875 52.635 *L 0.00284 *D NAND2BX1
*I *632:B I *C 39.875 57.855 *L 0.00284 *D NAND2BX1
*I *638:Y O *C 39.005 62.495 *L 0 *D NOR2XL

*CAP
1 *295:1 0.000383316
2 *295:2 0.000724041
3 *295:3 0.000340725
4 *295:5 6.49577e-05
5 *295:6 6.49577e-05

*RES
1 *295:7 *638:Y 1.4
2 *295:6 *295:7 1.4
3 *295:5 *295:6 0.372866
4 *295:3 *295:5 1.4
5 *295:2 *632:B 1.4
6 *295:2 *295:3 1.98852
7 *295:1 *295:2 2.23709
8 *646:B *295:1 1.4
*END

*D_NET *296 0.00164804

*CONN
*I *630:A1N I *C 30.595 39.295 *L 0.0017 *D OAI2BB1X1
*I *636:Y O *C 21.895 42.485 *L 0 *D NAND2XL

*CAP
1 *296:1 0.000229586
2 *296:2 0.000229586
3 *296:3 0.000594435
4 *296:4 0.000594435

*RES
1 *296:5 *636:Y 1.4
2 *296:4 *296:5 1.4
3 *296:3 *296:4 3.72866
4 *296:2 *296:3 1.4
5 *296:1 *296:2 1.36711
6 *630:A1N *296:1 1.4
*END

*D_NET *297 0.00160463

*CONN
*I *623:A1 I *C 35.235 36.685 *L 0.00271 *D OAI32X1
*I *628:AN I *C 35.525 39.005 *L 0.00178 *D NAND3BX1
*I *621:A0 I *C 38.715 33.785 *L 0.00271 *D OAI21X1
*I *637:Y O *C 35.815 32.045 *L 0 *D NAND2XL

*CAP
1 *297:1 2.08715e-05
2 *297:2 2.08715e-05
3 *297:3 1.99735e-05
4 *297:4 5.99204e-05
5 *297:5 3.99469e-05
6 *297:6 0.0001461
7 *297:7 0.000208715
8 *297:8 0.0001461
9 *297:9 0.000208715
10 *297:11 0.000199735
11 *297:12 0.000179761
12 *297:13 1.99735e-05
13 *297:14 2.08715e-05
14 *297:15 0.0001461
15 *297:16 2.08715e-05
16 *297:17 0.0001461

*RES
1 *297:17 *637:Y 1.4
2 *297:16 *621:A0 1.4
3 *297:15 *297:17 0.869979
4 *297:14 *297:16 0.124283
5 *297:13 *297:15 1.4
6 *297:12 *297:14 1.4
7 *297:11 *297:13 0.124289
8 *297:11 *297:12 1.1186
9 *297:9 *297:11 1.4
10 *297:8 *628:AN 1.4
11 *297:7 *297:9 1.24283
12 *297:6 *297:8 0.869979
13 *297:5 *297:7 1.4
14 *297:4 *297:6 1.4
15 *297:4 *297:5 0.248578
16 *297:3 *297:4 0.124289
17 *297:2 *297:3 1.4
18 *297:1 *297:2 0.124283
19 *623:A1 *297:1 1.4
*END

*D_NET *298 0.000592782

*CONN
*I *612:A I *C 49.445 65.105 *L 0.00162 *D NOR2XL
*I *633:Y O *C 53.505 65.105 *L 0 *D XNOR2XL

*CAP
1 *298:2 0.000296391
2 *298:3 0.000296391

*RES
1 *298:4 *633:Y 1.4
2 *298:3 *298:4 1.4
3 *298:2 *298:3 1.74002
4 *298:1 *298:2 1.4
5 *612:A *298:1 1.4
*END

*D_NET *299 0.00149017

*CONN
*I *619:B0 I *C 34.365 42.195 *L 0.0028 *D OAI21X1
*I *623:B1 I *C 34.365 36.685 *L 0.00282 *D OAI32X1
*I *635:Y O *C 32.335 33.785 *L 0 *D AOI2BB1X1

*CAP
1 *299:1 0.000396558
2 *299:2 0.000584401
3 *299:4 0.000187843
4 *299:5 0.000139814
5 *299:6 0.000139814
6 *299:7 2.08715e-05
7 *299:8 2.08715e-05

*RES
1 *299:8 *635:Y 1.4
2 *299:7 *299:8 0.124283
3 *299:6 *299:7 1.4
4 *299:5 *299:6 0.870021
5 *299:4 *299:5 1.4
6 *299:2 *299:4 1.11854
7 *299:2 *623:B1 1.4
8 *299:1 *299:2 2.36137
9 *619:B0 *299:1 1.4
*END

*D_NET *300 0.00175548

*CONN
*I *628:C I *C 34.365 39.005 *L 0.00289 *D NAND3BX1
*I *630:B0 I *C 31.465 39.295 *L 0.00273 *D OAI2BB1X1
*I *634:Y O *C 22.185 39.585 *L 0 *D NAND4BXL

*CAP
1 *300:1 2.08715e-05
2 *300:2 2.08715e-05
3 *300:3 0.000199735
4 *300:4 0.000834445
5 *300:6 0.00063471
6 *300:8 2.24211e-05
7 *300:9 2.24211e-05

*RES
1 *300:9 *634:Y 1.4
2 *300:8 *300:9 0.124289
3 *300:6 *300:8 1.4
4 *300:5 *630:B0 1.4
5 *300:4 *300:6 3.97724
6 *300:4 *300:5 1.4
7 *300:3 *300:4 1.24289
8 *300:2 *300:3 1.4
9 *300:1 *300:2 0.124283
10 *628:C *300:1 1.4
*END

*D_NET *301 0.00135556

*CONN
*I *627:A2 I *C 39.585 49.445 *L 0.00276 *D AOI31X1
*I *632:Y O *C 39.875 58.435 *L 0 *D NAND2BX1

*CAP
1 *301:1 0.000656129
2 *301:2 0.000656129
3 *301:3 2.16526e-05
4 *301:4 2.16526e-05

*RES
1 *301:5 *632:Y 1.4
2 *301:4 *301:5 1.4
3 *301:3 *301:4 0.124289
4 *301:2 *301:3 1.4
5 *301:1 *301:2 3.85276
6 *627:A2 *301:1 1.4
*END

*D_NET *302 0.000599204

*CONN
*I *606:A1 I *C 31.465 44.515 *L 0.00277 *D OAI22X1
*I *631:Y O *C 27.115 44.515 *L 0 *D AOI32X1

*CAP
1 *302:2 0.000299602
2 *302:3 0.000299602

*RES
1 *302:4 *631:Y 1.4
2 *302:3 *302:4 1.4
3 *302:2 *302:3 1.86433
4 *302:1 *302:2 1.4
5 *606:A1 *302:1 1.4
*END

*D_NET *303 0.00117642

*CONN
*I *629:A I *C 37.845 39.005 *L 0.00273 *D INVX1
*I *623:A2 I *C 34.945 36.685 *L 0.00281 *D OAI32X1
*I *630:Y O *C 32.335 39.005 *L 0 *D OAI2BB1X1

*CAP
1 *303:2 0.000199735
2 *303:3 0.000199735
3 *303:4 4.17429e-05
4 *303:5 0.000166972
5 *303:6 0.000179761
6 *303:7 0.000125229
7 *303:8 0.000179761
8 *303:10 4.17429e-05
9 *303:11 4.17429e-05

*RES
1 *303:11 *630:Y 1.4
2 *303:10 *303:11 0.248565
3 *303:8 *303:10 1.4
4 *303:7 *623:A2 1.4
5 *303:6 *303:8 1.1186
6 *303:5 *303:7 0.745696
7 *303:5 *303:6 1.4
8 *303:4 *303:5 0.248565
9 *303:3 *303:4 1.4
10 *303:2 *303:3 1.24289
11 *303:1 *303:2 1.4
12 *629:A *303:1 1.4
*END

*D_NET *304 0.000841705

*CONN
*I *621:A1 I *C 39.005 34.075 *L 0.00274 *D OAI21X1
*I *629:Y O *C 38.2175 39.005 *L 0 *D INVX1

*CAP
1 *304:2 3.99469e-05
2 *304:3 3.99469e-05
3 *304:4 0.000354815
4 *304:5 0.000354815
5 *304:6 1.99735e-05
6 *304:7 1.99735e-05
7 *304:8 6.11749e-06
8 *304:9 6.11749e-06

*RES
1 *304:9 *629:Y 1.4
2 *304:8 *304:9 0.0364277
3 *304:7 *304:8 1.4
4 *304:6 *304:7 0.124289
5 *304:5 *304:6 1.4
6 *304:4 *304:5 2.11281
7 *304:3 *304:4 1.4
8 *304:2 *304:3 0.248578
9 *304:1 *304:2 1.4
10 *621:A1 *304:1 1.4
*END

*D_NET *305 0.00070065

*CONN
*I *616:A0 I *C 40.455 44.225 *L 0.00271 *D OAI21X1
*I *626:Y O *C 39.005 47.705 *L 0 *D AOI31X1

*CAP
1 *305:2 5.99204e-05
2 *305:3 5.99204e-05
3 *305:4 0.000250457
4 *305:5 0.000250457
5 *305:6 3.99469e-05
6 *305:7 3.99469e-05

*RES
1 *305:8 *626:Y 1.4
2 *305:7 *305:8 1.4
3 *305:6 *305:7 0.248578
4 *305:5 *305:6 1.4
5 *305:4 *305:5 1.49139
6 *305:3 *305:4 1.4
7 *305:2 *305:3 0.372866
8 *305:1 *305:2 1.4
9 *616:A0 *305:1 1.4
*END

*D_NET *306 0.00334694

*CONN
*I *620:C0 I *C 25.665 42.195 *L 0.00281 *D AOI211X1
*I *606:A0 I *C 31.175 44.515 *L 0.00265 *D OAI22X1
*I *619:A1 I *C 33.785 41.905 *L 0.00274 *D OAI21X1
*I *628:Y O *C 34.075 39.585 *L 0 *D NAND3BX1
*I *613:A I *C 44.225 41.905 *L 0.00157 *D NAND2XL

*CAP
1 *306:2 0.000379003
2 *306:3 0.000379003
3 *306:4 0.000208715
4 *306:5 0.000166972
5 *306:6 4.17429e-05
6 *306:8 0.000179761
7 *306:9 0.000199735
8 *306:10 1.99735e-05
9 *306:11 2.08715e-05
10 *306:12 0.0001461
11 *306:13 2.08715e-05
12 *306:14 0.0001461
13 *306:15 0.000719045
14 *306:18 0.000719045

*RES
1 *306:19 *613:A 1.4
2 *306:18 *306:19 1.4
3 *306:15 *306:18 4.4744
4 *306:14 *628:Y 1.4
5 *306:13 *619:A1 1.4
6 *306:13 *306:15 1.4
7 *306:12 *306:14 0.869979
8 *306:11 *306:13 0.124283
9 *306:10 *306:12 1.4
10 *306:9 *306:11 1.4
11 *306:9 *306:10 0.124289
12 *306:8 *306:9 1.1186
13 *306:6 *306:8 1.4
14 *306:5 *606:A0 1.4
15 *306:4 *306:6 0.248565
16 *306:4 *306:5 0.994261
17 *306:3 *306:4 1.4
18 *306:2 *306:3 2.36149
19 *306:1 *306:2 1.4
20 *620:C0 *306:1 1.4
*END

*D_NET *307 0.00227181

*CONN
*I *625:A I *C 40.735 39.2325 *L 0.00163 *D INVXL
*I *616:A1 I *C 40.745 44.515 *L 0.00274 *D OAI21X1
*I *627:Y O *C 39.585 49.155 *L 0 *D AOI31X1

*CAP
1 *307:1 7.19705e-07
2 *307:2 5.03794e-06
3 *307:3 4.31823e-06
4 *307:4 9.98674e-05
5 *307:5 9.98674e-05
6 *307:6 0.000375686
7 *307:7 0.000730501
8 *307:8 0.000354815
9 *307:9 9.98674e-05
10 *307:10 0.000179761
11 *307:11 9.98674e-05
12 *307:12 0.000179761
13 *307:14 2.08715e-05
14 *307:16 2.08715e-05

*RES
1 *307:16 *627:Y 1.4
2 *307:14 *307:16 0.124283
3 *307:13 *616:A1 1.4
4 *307:12 *307:14 1.4
5 *307:11 *307:13 1.4
6 *307:10 *307:12 1.1186
7 *307:9 *307:11 0.621444
8 *307:8 *307:10 1.4
9 *307:7 *307:9 1.4
10 *307:7 *307:8 2.11281
11 *307:6 *307:7 2.23709
12 *307:5 *307:6 1.4
13 *307:4 *307:5 0.621444
14 *307:3 *307:4 1.4
15 *307:2 *307:3 0.0257137
16 *307:1 *307:2 0.00428561
17 *625:A *307:1 1.4
*END

*D_NET *308 0.00113678

*CONN
*I *618:B1 I *C 40.165 31.755 *L 0.00284 *D AOI32X1
*I *625:Y O *C 40.3725 39.295 *L 0 *D INVXL

*CAP
1 *308:1 0.000542658
2 *308:2 0.000542658
3 *308:3 1.99735e-05
4 *308:4 1.99735e-05
5 *308:5 5.75764e-06
6 *308:6 5.75764e-06

*RES
1 *308:6 *625:Y 1.4
2 *308:5 *308:6 0.0342849
3 *308:4 *308:5 1.4
4 *308:3 *308:4 0.124289
5 *308:2 *308:3 1.4
6 *308:1 *308:2 3.23135
7 *618:B1 *308:1 1.4
*END

*D_NET *309 0.000686452

*CONN
*I *622:B0 I *C 43.935 63.075 *L 0.00166 *D AOI21XL
*I *624:Y O *C 45.965 65.685 *L 0 *D NOR2XL

*CAP
1 *309:2 0.000151568
2 *309:3 0.000151568
3 *309:4 0.000191658
4 *309:5 0.000191658

*RES
1 *309:5 *624:Y 1.4
2 *309:4 *309:5 1.11854
3 *309:3 *309:4 1.4
4 *309:2 *309:3 0.870021
5 *309:1 *309:2 1.4
6 *622:B0 *309:1 1.4
*END

*D_NET *310 0.00172485

*CONN
*I *615:D I *C 23.345 36.975 *L 0.00276 *D SDFFRHQX1
*I *623:Y O *C 34.655 35.815 *L 0 *D OAI32X1

*CAP
1 *310:1 4.48421e-05
2 *310:2 4.48421e-05
3 *310:3 0.000775841
4 *310:4 0.000775841
5 *310:5 4.17429e-05
6 *310:6 4.17429e-05

*RES
1 *310:6 *623:Y 1.4
2 *310:5 *310:6 0.248565
3 *310:4 *310:5 1.4
4 *310:3 *310:4 4.84726
5 *310:2 *310:3 1.4
6 *310:1 *310:2 0.248578
7 *615:D *310:1 1.4
*END

*D_NET *311 0.000879698

*CONN
*I *614:A I *C 43.935 57.855 *L 0.00162 *D NOR2XL
*I *622:Y O *C 43.755 63.44 *L 0 *D AOI21XL

*CAP
1 *311:2 2.16526e-05
2 *311:3 2.16526e-05
3 *311:4 0.000410119
4 *311:5 0.000418196
5 *311:6 8.07754e-06

*RES
1 *311:6 *622:Y 1.4
2 *311:5 *311:6 0.0471417
3 *311:4 *311:5 2.39351
4 *311:3 *311:4 1.4
5 *311:2 *311:3 0.124289
6 *311:1 *311:2 1.4
7 *614:A *311:1 1.4
*END

*D_NET *312 0.000443008

*CONN
*I *611:A I *C 42.485 34.075 *L 0.00157 *D NAND2XL
*I *621:Y O *C 39.875 33.495 *L 0 *D OAI21X1

*CAP
1 *312:1 2.08715e-05
2 *312:2 2.08715e-05
3 *312:3 0.000179761
4 *312:4 0.000179761
5 *312:5 2.08715e-05
6 *312:6 2.08715e-05

*RES
1 *312:6 *621:Y 1.4
2 *312:5 *312:6 0.124283
3 *312:4 *312:5 1.4
4 *312:3 *312:4 1.1186
5 *312:2 *312:3 1.4
6 *312:1 *312:2 0.124283
7 *611:A *312:1 1.4
*END

*D_NET *313 0.000728329

*CONN
*I *605:B0 I *C 29.435 42.195 *L 0.00175 *D AO21X1
*I *620:Y O *C 25.085 42.485 *L 0 *D AOI211X1

*CAP
1 *313:1 2.08715e-05
2 *313:2 2.08715e-05
3 *313:3 0.000298451
4 *313:4 0.000298451
5 *313:5 4.48421e-05
6 *313:6 4.48421e-05

*RES
1 *313:6 *620:Y 1.4
2 *313:5 *313:6 0.248578
3 *313:4 *313:5 1.4
4 *313:3 *313:4 1.86433
5 *313:2 *313:3 1.4
6 *313:1 *313:2 0.124283
7 *605:B0 *313:1 1.4
*END

*D_NET *314 0.000815103

*CONN
*I *611:B I *C 43.065 34.075 *L 0.00167 *D NAND2XL
*I *618:Y O *C 39.875 31.465 *L 0 *D AOI32X1

*CAP
1 *314:1 0.000187843
2 *314:2 0.000187843
3 *314:3 0.000219708
4 *314:4 0.000219708

*RES
1 *314:5 *618:Y 1.4
2 *314:4 *314:5 1.4
3 *314:3 *314:4 1.36718
4 *314:2 *314:3 1.4
5 *314:1 *314:2 1.11854
6 *611:B *314:1 1.4
*END

*D_NET *315 0.00122285

*CONN
*I *617:A I *C 35.245 44.4525 *L 0.00163 *D INVXL
*I *619:Y O *C 34.655 42.485 *L 0 *D OAI21X1
*I *605:A1 I *C 28.855 42.485 *L 0.00163 *D AO21X1

*CAP
1 *315:1 7.19705e-07
2 *315:2 5.03794e-06
3 *315:3 4.31823e-06
4 *315:4 3.99469e-05
5 *315:5 3.99469e-05
6 *315:6 0.000125229
7 *315:7 0.0001461
8 *315:8 0.00039947
9 *315:9 2.08715e-05
10 *315:10 0.00039947
11 *315:12 2.08715e-05
12 *315:13 2.08715e-05

*RES
1 *315:13 *605:A1 1.4
2 *315:12 *315:13 0.124283
3 *315:10 *315:12 1.4
4 *315:9 *619:Y 1.4
5 *315:8 *315:10 2.48578
6 *315:7 *315:9 0.124283
7 *315:7 *315:8 1.4
8 *315:6 *315:7 0.745696
9 *315:5 *315:6 1.4
10 *315:4 *315:5 0.248578
11 *315:3 *315:4 1.4
12 *315:2 *315:3 0.0257137
13 *315:1 *315:2 0.00428561
14 *617:A *315:1 1.4
*END

*D_NET *316 0.000575084

*CONN
*I *606:B1 I *C 32.045 44.515 *L 0.00282 *D OAI22X1
*I *617:Y O *C 35.6075 44.515 *L 0 *D INVXL

*CAP
1 *316:1 2.08715e-05
2 *316:2 2.08715e-05
3 *316:3 0.000239682
4 *316:4 0.000239682
5 *316:5 2.08715e-05
6 *316:6 2.69889e-05
7 *316:7 6.11749e-06

*RES
1 *316:7 *617:Y 1.4
2 *316:6 *316:7 0.0364277
3 *316:5 *316:6 0.124283
4 *316:4 *316:5 1.4
5 *316:3 *316:4 1.49147
6 *316:2 *316:3 1.4
7 *316:1 *316:2 0.124283
8 *606:B1 *316:1 1.4
*END

*D_NET *317 0.00997964

*CONN
*I *608:B I *C 51.475 70.615 *L 0.00171 *D NOR2XL
*I *612:B I *C 49.155 65.395 *L 0.00171 *D NOR2XL
*I *596:B I *C 45.385 70.615 *L 0.00171 *D NOR2XL
*I *583:A I *C 47.415 57.855 *L 0.00162 *D NOR2XL
*I *614:B I *C 43.645 57.565 *L 0.00171 *D NOR2XL
*I *581:A I *C 47.415 49.445 *L 0.00162 *D NOR2XL
*I *586:A I *C 36.395 52.635 *L 0.00162 *D NOR2XL
*I *591:B I *C 36.105 62.785 *L 0.00171 *D NOR2XL
*I *616:Y O *C 41.615 43.935 *L 0 *D OAI21X1
*I *613:B I *C 44.805 41.905 *L 0.00167 *D NAND2XL

*CAP
1 *317:1 2.12953e-05
2 *317:2 2.12953e-05
3 *317:3 0.000173221
4 *317:4 0.000173221
5 *317:5 0.000383316
6 *317:6 2.12953e-05
7 *317:7 0.000873109
8 *317:8 0.000281484
9 *317:10 0.000511088
10 *317:11 0.000281484
11 *317:12 0.000129915
12 *317:14 0.000129915
13 *317:16 4.25907e-05
14 *317:17 6.3886e-05
15 *317:19 2.12953e-05
16 *317:20 6.49577e-05
17 *317:21 0.000281484
18 *317:22 0.000340725
19 *317:23 0.000216526
20 *317:24 0.000340725
21 *317:26 0.000822798
22 *317:28 6.49577e-05
23 *317:29 0.000779493
24 *317:30 0.000251517
25 *317:31 2.12953e-05
26 *317:32 2.16526e-05
27 *317:33 0.00029326
28 *317:34 2.12953e-05
29 *317:35 0.000724041
30 *317:37 4.17429e-05
31 *317:39 0.000724041
32 *317:40 0.000179761
33 *317:42 0.000179761
34 *317:43 0.000354815
35 *317:44 0.000354815
36 *317:45 1.99735e-05
37 *317:46 0.000219708
38 *317:47 0.0001461
39 *317:48 0.000199735
40 *317:49 0.0001461
41 *317:51 1.99735e-05
42 *317:53 1.99735e-05

*RES
1 *317:54 *613:B 1.4
2 *317:53 *317:54 1.4
3 *317:51 *317:53 0.124289
4 *317:50 *616:Y 1.4
5 *317:49 *317:51 1.4
6 *317:48 *317:50 1.4
7 *317:47 *317:49 0.869979
8 *317:46 *317:48 1.24289
9 *317:46 *317:47 1.4
10 *317:45 *317:46 0.124289
11 *317:44 *317:45 1.4
12 *317:43 *317:44 2.11281
13 *317:42 *317:43 1.4
14 *317:40 *317:42 1.1186
15 *317:39 *591:B 1.4
16 *317:37 *317:40 1.4
17 *317:35 *317:39 4.22561
18 *317:34 *586:A 1.4
19 *317:33 *317:37 0.248565
20 *317:33 *581:A 1.4
21 *317:32 *317:35 1.4
22 *317:31 *317:34 0.124283
23 *317:30 *317:33 1.49139
24 *317:29 *317:32 0.124289
25 *317:29 *317:31 1.4
26 *317:28 *317:30 1.4
27 *317:26 *317:29 4.35011
28 *317:26 *317:28 0.372866
29 *317:25 *614:B 1.4
30 *317:24 *317:26 1.4
31 *317:23 *317:25 1.4
32 *317:22 *317:24 1.98852
33 *317:21 *317:23 1.24289
34 *317:21 *317:22 1.4
35 *317:20 *317:21 0.372866
36 *317:19 *317:20 1.4
37 *317:17 *317:19 0.124283
38 *317:17 *583:A 1.4
39 *317:16 *317:17 0.248565
40 *317:14 *317:16 1.4
41 *317:13 *596:B 1.4
42 *317:12 *317:14 0.745733
43 *317:11 *317:13 1.4
44 *317:10 *317:12 1.4
45 *317:8 *317:11 1.61575
46 *317:7 *317:10 2.98278
47 *317:7 *612:B 1.4
48 *317:6 *317:8 1.4
49 *317:5 *317:7 2.11281
50 *317:5 *317:6 0.124283
51 *317:4 *317:5 1.4
52 *317:3 *317:4 0.99431
53 *317:2 *317:3 1.4
54 *317:1 *317:2 0.124283
55 *608:B *317:1 1.4
*END

*D_NET *318 0.000469926

*CONN
*I *601:D I *C 43.935 59.885 *L 0.00276 *D SDFFRHQX1
*I *614:Y O *C 43.355 57.275 *L 0 *D NOR2XL

*CAP
1 *318:1 0.000191658
2 *318:2 0.000191658
3 *318:3 4.33052e-05
4 *318:4 4.33052e-05

*RES
1 *318:5 *614:Y 1.4
2 *318:4 *318:5 1.4
3 *318:3 *318:4 0.248578
4 *318:2 *318:3 1.4
5 *318:1 *318:2 1.11854
6 *601:D *318:1 1.4
*END

*D_NET *319 0.000620756

*CONN
*I *602:D I *C 45.675 39.005 *L 0.00276 *D SDFFRHQX1
*I *613:Y O *C 44.805 42.485 *L 0 *D NAND2XL

*CAP
1 *319:2 1.99735e-05
2 *319:3 1.99735e-05
3 *319:4 0.000250457
4 *319:5 0.000250457
5 *319:6 3.99469e-05
6 *319:7 3.99469e-05

*RES
1 *319:8 *613:Y 1.4
2 *319:7 *319:8 1.4
3 *319:6 *319:7 0.248578
4 *319:5 *319:6 1.4
5 *319:4 *319:5 1.49139
6 *319:3 *319:4 1.4
7 *319:2 *319:3 0.124289
8 *319:1 *319:2 1.4
9 *602:D *319:1 1.4
*END

*D_NET *320 0.00183266

*CONN
*I *600:D I *C 58.435 68.295 *L 0.00276 *D SDFFRHQX1
*I *612:Y O *C 48.865 65.685 *L 0 *D NOR2XL

*CAP
1 *320:1 2.10714e-05
2 *320:2 2.10714e-05
3 *320:3 0.000682308
4 *320:4 0.000682308
5 *320:5 0.000212953
6 *320:6 0.000212953

*RES
1 *320:6 *612:Y 1.4
2 *320:5 *320:6 1.24283
3 *320:4 *320:5 1.4
4 *320:3 *320:4 4.10141
5 *320:2 *320:3 1.4
6 *320:1 *320:2 0.124283
7 *600:D *320:1 1.4
*END

*D_NET *321 0.000860437

*CONN
*I *603:D I *C 45.675 36.975 *L 0.00276 *D SDFFRHQX1
*I *611:Y O *C 43.065 33.495 *L 0 *D NAND2XL

*CAP
1 *321:1 0.000250457
2 *321:2 0.000250457
3 *321:3 0.000179761
4 *321:4 0.000179761

*RES
1 *321:5 *611:Y 1.4
2 *321:4 *321:5 1.4
3 *321:3 *321:4 1.1186
4 *321:2 *321:3 1.4
5 *321:1 *321:2 1.49139
6 *603:D *321:1 1.4
*END

*D_NET *322 0.00103004

*CONN
*I *604:B0 I *C 41.325 70.325 *L 0.00166 *D AOI21XL
*I *609:Y O *C 38.135 67.715 *L 0 *D NOR2XL

*CAP
1 *322:1 4.25907e-05
2 *322:2 4.25907e-05
3 *322:3 0.000238178
4 *322:4 0.000238178
5 *322:5 0.000234249
6 *322:6 0.000234249

*RES
1 *322:6 *609:Y 1.4
2 *322:5 *322:6 1.36711
3 *322:4 *322:5 1.4
4 *322:3 *322:4 1.36718
5 *322:2 *322:3 1.4
6 *322:1 *322:2 0.248565
7 *604:B0 *322:1 1.4
*END

*D_NET *323 0.00118993

*CONN
*I *607:D I *C 57.565 73.515 *L 0.00276 *D SDFFRHQX1
*I *608:Y O *C 51.765 70.905 *L 0 *D NOR2XL

*CAP
1 *323:1 0.000189643
2 *323:2 0.000189643
3 *323:3 0.000405321
4 *323:4 0.000405321

*RES
1 *323:5 *608:Y 1.4
2 *323:4 *323:5 1.4
3 *323:3 *323:4 2.48567
4 *323:2 *323:3 1.4
5 *323:1 *323:2 1.11855
6 *607:D *323:1 1.4
*END

*D_NET *324 0.00137933

*CONN
*I *595:B I *C 32.915 65.395 *L 0.00171 *D NOR2XL
*I *597:AN I *C 32.915 63.075 *L 0.00178 *D NAND2BX1
*I *594:A1 I *C 36.685 64.815 *L 0.00163 *D AOI21XL
*I *610:Y O *C 39.585 64.525 *L 0 *D NAND2BX1

*CAP
1 *324:1 4.25907e-05
2 *324:2 0.000170363
3 *324:3 0.000281484
4 *324:4 0.000127772
5 *324:5 0.000498009
6 *324:7 0.000216526
7 *324:9 2.12953e-05
8 *324:11 2.12953e-05

*RES
1 *324:11 *610:Y 1.4
2 *324:9 *324:11 0.124283
3 *324:8 *594:A1 1.4
4 *324:7 *324:9 1.4
5 *324:5 *324:8 1.4
6 *324:5 *324:7 1.24289
7 *324:4 *597:AN 1.4
8 *324:3 *324:5 1.61575
9 *324:2 *324:4 0.745696
10 *324:2 *324:3 1.4
11 *324:1 *324:2 0.248565
12 *595:B *324:1 1.4
*END

*D_NET *325 0.00101304

*CONN
*I *599:D I *C 26.825 47.415 *L 0.00276 *D SDFFRHQX1
*I *606:Y O *C 31.755 45.095 *L 0 *D OAI22X1

*CAP
1 *325:2 0.000339549
2 *325:3 0.000339549
3 *325:4 0.000166972
4 *325:5 0.000166972

*RES
1 *325:5 *606:Y 1.4
2 *325:4 *325:5 0.994261
3 *325:3 *325:4 1.4
4 *325:2 *325:3 2.11291
5 *325:1 *325:2 1.4
6 *599:D *325:1 1.4
*END

*D_NET *326 0.00124151

*CONN
*I *598:D I *C 28.275 49.445 *L 0.00276 *D SDFFRHQX1
*I *605:Y O *C 30.015 42.485 *L 0 *D AO21X1

*CAP
1 *326:2 0.000119841
2 *326:3 0.000119841
3 *326:4 0.000500915
4 *326:5 0.000500915

*RES
1 *326:5 *605:Y 1.4
2 *326:4 *326:5 2.98278
3 *326:3 *326:4 1.4
4 *326:2 *326:3 0.745733
5 *326:1 *326:2 1.4
6 *598:D *326:1 1.4
*END

*D_NET *327 0.000589423

*CONN
*I *596:A I *C 45.095 70.325 *L 0.00162 *D NOR2XL
*I *604:Y O *C 41.505 69.96 *L 0 *D AOI21XL

*CAP
1 *327:1 2.12953e-05
2 *327:2 2.12953e-05
3 *327:3 0.000259831
4 *327:4 0.000259831
5 *327:5 5.50741e-06
6 *327:6 1.3585e-05
7 *327:7 8.07754e-06

*RES
1 *327:7 *604:Y 1.4
2 *327:6 *327:7 0.0471417
3 *327:5 *327:6 0.0321421
4 *327:4 *327:5 1.4
5 *327:3 *327:4 1.49147
6 *327:2 *327:3 1.4
7 *327:1 *327:2 0.124283
8 *596:A *327:1 1.4
*END

*D_NET *328 0.00103289

*CONN
*I *593:D I *C 41.325 73.515 *L 0.00276 *D SDFFRHQX1
*I *596:Y O *C 45.675 70.905 *L 0 *D NOR2XL

*CAP
1 *328:2 0.000324789
2 *328:3 0.000324789
3 *328:4 0.000191658
4 *328:5 0.000191658

*RES
1 *328:5 *596:Y 1.4
2 *328:4 *328:5 1.11854
3 *328:3 *328:4 1.4
4 *328:2 *328:3 1.86433
5 *328:1 *328:2 1.4
6 *593:D *328:1 1.4
*END

*D_NET *329 0.00288512

*CONN
*I *589:A1 I *C 34.945 49.155 *L 0.00163 *D AOI21XL
*I *590:B I *C 34.655 47.125 *L 0.00171 *D NOR2XL
*I *592:AN I *C 33.205 52.635 *L 0.00178 *D NAND2BX1
*I *597:Y O *C 32.045 63.655 *L 0 *D NAND2BX1

*CAP
1 *329:2 1.99735e-05
2 *329:3 1.99735e-05
3 *329:4 0.000418489
4 *329:5 0.000272389
5 *329:6 0.0001461
6 *329:7 0.000108263
7 *329:9 0.000194873
8 *329:10 2.12953e-05
9 *329:11 8.66103e-05
10 *329:12 2.12953e-05
11 *329:13 0.000787927
12 *329:15 0.000787927

*RES
1 *329:15 *597:Y 1.4
2 *329:13 *329:15 4.59846
3 *329:12 *592:AN 1.4
4 *329:11 *329:13 1.4
5 *329:10 *329:12 0.124283
6 *329:9 *329:11 0.497155
7 *329:9 *329:10 1.4
8 *329:7 *329:9 0.621444
9 *329:6 *590:B 1.4
10 *329:5 *329:7 1.4
11 *329:4 *329:6 0.869979
12 *329:4 *329:5 1.61567
13 *329:3 *329:4 1.4
14 *329:2 *329:3 0.124289
15 *329:1 *329:2 1.4
16 *589:A1 *329:1 1.4
*END

*D_NET *330 0.000518233

*CONN
*I *594:B0 I *C 36.105 65.105 *L 0.00166 *D AOI21XL
*I *595:Y O *C 33.205 65.685 *L 0 *D NOR2XL

*CAP
1 *330:1 2.12953e-05
2 *330:2 2.12953e-05
3 *330:3 0.000216526
4 *330:4 0.000216526
5 *330:5 2.12953e-05
6 *330:6 2.12953e-05

*RES
1 *330:6 *595:Y 1.4
2 *330:5 *330:6 0.124283
3 *330:4 *330:5 1.4
4 *330:3 *330:4 1.24289
5 *330:2 *330:3 1.4
6 *330:1 *330:2 0.124283
7 *594:B0 *330:1 1.4
*END

*D_NET *331 0.000260684

*CONN
*I *591:A I *C 36.395 63.075 *L 0.00162 *D NOR2XL
*I *594:Y O *C 36.285 64.74 *L 0 *D AOI21XL

*CAP
1 *331:1 0.000122265
2 *331:2 0.000130342
3 *331:3 8.07754e-06

*RES
1 *331:3 *594:Y 1.4
2 *331:2 *331:3 0.0471417
3 *331:1 *331:2 0.713554
4 *591:A *331:1 1.4
*END

*D_NET *332 0.000686452

*CONN
*I *588:D I *C 33.785 59.885 *L 0.00276 *D SDFFRHQX1
*I *591:Y O *C 35.815 62.495 *L 0 *D NOR2XL

*CAP
1 *332:1 0.000191658
2 *332:2 0.000191658
3 *332:3 0.000151568
4 *332:4 0.000151568

*RES
1 *332:5 *591:Y 1.4
2 *332:4 *332:5 1.4
3 *332:3 *332:4 0.870021
4 *332:2 *332:3 1.4
5 *332:1 *332:2 1.11854
6 *588:D *332:1 1.4
*END

*D_NET *333 0.00195337

*CONN
*I *585:B I *C 45.97 52.005 *L 0.00164 *D MXI2XL
*I *587:A I *C 41.905 52.635 *L 0.00273 *D CLKINVX1
*I *592:Y O *C 34.075 53.215 *L 0 *D NAND2BX1

*CAP
1 *333:1 3.59853e-07
2 *333:2 4.63371e-05
3 *333:3 4.59773e-05
4 *333:4 0.000303136
5 *333:5 0.000887756
6 *333:7 0.00058462
7 *333:9 4.25907e-05
8 *333:10 4.25907e-05

*RES
1 *333:10 *592:Y 1.4
2 *333:9 *333:10 0.248565
3 *333:7 *333:9 1.4
4 *333:6 *587:A 1.4
5 *333:5 *333:7 3.3558
6 *333:5 *333:6 1.4
7 *333:4 *333:5 1.74004
8 *333:3 *333:4 1.4
9 *333:2 *333:3 0.269993
10 *333:1 *333:2 0.0021428
11 *585:B *333:1 1.4
*END

*D_NET *334 0.00045558

*CONN
*I *589:B0 I *C 35.525 49.445 *L 0.00166 *D AOI21XL
*I *590:Y O *C 34.945 46.835 *L 0 *D NOR2XL

*CAP
1 *334:1 0.000187843
2 *334:2 0.000187843
3 *334:3 3.99469e-05
4 *334:4 3.99469e-05

*RES
1 *334:5 *590:Y 1.4
2 *334:4 *334:5 1.4
3 *334:3 *334:4 0.248578
4 *334:2 *334:3 1.4
5 *334:1 *334:2 1.11854
6 *589:B0 *334:1 1.4
*END

*D_NET *335 0.000769212

*CONN
*I *586:B I *C 36.685 52.345 *L 0.00171 *D NOR2XL
*I *589:Y O *C 35.345 49.08 *L 0 *D AOI21XL

*CAP
1 *335:2 2.16526e-05
2 *335:3 2.16526e-05
3 *335:4 0.000229798
4 *335:5 0.000229798
5 *335:6 0.000119841
6 *335:7 0.000119841
7 *335:8 5.39779e-06
8 *335:9 1.33145e-05
9 *335:10 7.91676e-06

*RES
1 *335:10 *589:Y 1.4
2 *335:9 *335:10 0.0471417
3 *335:8 *335:9 0.0321421
4 *335:7 *335:8 1.4
5 *335:6 *335:7 0.745733
6 *335:5 *335:6 1.4
7 *335:4 *335:5 1.36711
8 *335:3 *335:4 1.4
9 *335:2 *335:3 0.124289
10 *335:1 *335:2 1.4
11 *586:B *335:1 1.4
*END

*D_NET *336 0.000944363

*CONN
*I *582:A1 I *C 44.225 49.155 *L 0.00163 *D AOI21XL
*I *585:A I *C 44.805 52.345 *L 0.0017 *D MXI2XL
*I *587:Y O *C 42.2775 52.635 *L 0 *D CLKINVX1

*CAP
1 *336:2 1.99735e-05
2 *336:3 1.99735e-05
3 *336:4 0.000229798
4 *336:5 0.000229798
5 *336:6 0.000194873
6 *336:7 2.16526e-05
7 *336:8 0.000173221
8 *336:10 2.12953e-05
9 *336:12 2.75371e-05
10 *336:13 6.24174e-06

*RES
1 *336:13 *587:Y 1.4
2 *336:12 *336:13 0.0364277
3 *336:10 *336:12 0.124283
4 *336:9 *585:A 1.4
5 *336:8 *336:10 1.4
6 *336:7 *336:9 1.4
7 *336:6 *336:8 0.99431
8 *336:6 *336:7 0.124289
9 *336:5 *336:6 1.4
10 *336:4 *336:5 1.36711
11 *336:3 *336:4 1.4
12 *336:2 *336:3 0.124289
13 *336:1 *336:2 1.4
14 *582:A1 *336:1 1.4
*END

*D_NET *337 0.000466144

*CONN
*I *584:D I *C 36.395 54.665 *L 0.00276 *D SDFFRHQX1
*I *586:Y O *C 36.975 52.055 *L 0 *D NOR2XL

*CAP
1 *337:2 2.16526e-05
2 *337:3 2.16526e-05
3 *337:4 0.000191446
4 *337:5 0.000191446
5 *337:6 1.99735e-05
6 *337:7 1.99735e-05

*RES
1 *337:8 *586:Y 1.4
2 *337:7 *337:8 1.4
3 *337:6 *337:7 0.124289
4 *337:5 *337:6 1.4
5 *337:4 *337:5 1.11854
6 *337:3 *337:4 1.4
7 *337:2 *337:3 0.124289
8 *337:1 *337:2 1.4
9 *584:D *337:1 1.4
*END

*D_NET *338 0.000984587

*CONN
*I *583:B I *C 47.125 57.565 *L 0.00171 *D NOR2XL
*I *585:Y O *C 45.095 52.925 *L 0 *D MXI2XL

*CAP
1 *338:1 2.12953e-05
2 *338:2 2.12953e-05
3 *338:3 0.000151568
4 *338:4 0.000151568
5 *338:5 0.00031943
6 *338:6 0.00031943

*RES
1 *338:6 *585:Y 1.4
2 *338:5 *338:6 1.86424
3 *338:4 *338:5 1.4
4 *338:3 *338:4 0.870021
5 *338:2 *338:3 1.4
6 *338:1 *338:2 0.124283
7 *583:B *338:1 1.4
*END

*D_NET *339 0.000383316

*CONN
*I *580:D I *C 46.835 54.665 *L 0.00276 *D SDFFRHQX1
*I *583:Y O *C 46.835 57.275 *L 0 *D NOR2XL

*CAP
1 *339:1 0.000191658
2 *339:2 0.000191658

*RES
1 *339:2 *583:Y 1.4
2 *339:1 *339:2 1.11854
3 *580:D *339:1 1.4
*END

*D_NET *340 0.000629425

*CONN
*I *581:B I *C 47.705 49.735 *L 0.00171 *D NOR2XL
*I *582:Y O *C 43.825 49.08 *L 0 *D AOI21XL

*CAP
1 *340:1 2.08715e-05
2 *340:2 2.08715e-05
3 *340:3 0.000259655
4 *340:4 0.000259655
5 *340:5 2.62692e-05
6 *340:6 3.4186e-05
7 *340:7 7.91676e-06

*RES
1 *340:7 *582:Y 1.4
2 *340:6 *340:7 0.0471417
3 *340:5 *340:6 0.156425
4 *340:4 *340:5 1.4
5 *340:3 *340:4 1.61575
6 *340:2 *340:3 1.4
7 *340:1 *340:2 0.124283
8 *581:B *340:1 1.4
*END

*D_NET *341 0.000615368

*CONN
*I *579:D I *C 49.735 47.415 *L 0.00276 *D SDFFRHQX1
*I *581:Y O *C 47.995 50.025 *L 0 *D NOR2XL

*CAP
1 *341:1 0.000187843
2 *341:2 0.000187843
3 *341:3 0.000119841
4 *341:4 0.000119841

*RES
1 *341:5 *581:Y 1.4
2 *341:4 *341:5 1.4
3 *341:3 *341:4 0.745733
4 *341:2 *341:3 1.4
5 *341:1 *341:2 1.11854
6 *579:D *341:1 1.4
*END

*D_NET *342 0.000540514

*CONN
*I *575:D I *C 65.105 70.325 *L 0.00276 *D SDFFRHQX1
*I *578:Y O *C 65.685 67.715 *L 0 *D OR2X1

*CAP
1 *342:2 2.01536e-05
2 *342:3 2.01536e-05
3 *342:4 0.000189643
4 *342:5 0.000189643
5 *342:6 6.04609e-05
6 *342:7 6.04609e-05

*RES
1 *342:8 *578:Y 1.4
2 *342:7 *342:8 1.4
3 *342:6 *342:7 0.372849
4 *342:5 *342:6 1.4
5 *342:4 *342:5 1.11855
6 *342:3 *342:4 1.4
7 *342:2 *342:3 0.124283
8 *342:1 *342:2 1.4
9 *575:D *342:1 1.4
*END

*D_NET *343 0.00440871

*CONN
*I *653:S0 I *C 95.555 81.345 *L 0.00371 *D MX2X1
*I *656:S0 I *C 96.135 76.125 *L 0.00371 *D MX2X1
*I *657:Y O *C 93.815 70.035 *L 0 *D NOR4X1
*I *655:S0 I *C 85.115 70.905 *L 0.00371 *D MX2X1
*I *654:S0 I *C 84.245 76.125 *L 0.00371 *D MX2X1

*CAP
1 *343:2 2.07733e-05
2 *343:3 2.07733e-05
3 *343:4 0.00039191
4 *343:5 0.00039191
5 *343:6 0.000101238
6 *343:7 2.02476e-05
7 *343:8 8.09903e-05
8 *343:10 0.000458909
9 *343:12 0.000458909
10 *343:13 6.07427e-05
11 *343:14 0.00066817
12 *343:16 0.000607427
13 *343:18 6.55585e-05
14 *343:19 0.000480762
15 *343:20 0.000415204
16 *343:22 6.07427e-05
17 *343:23 6.07427e-05
18 *343:24 2.18528e-05
19 *343:25 2.18528e-05

*RES
1 *343:25 *654:S0 1.4
2 *343:24 *343:25 0.124289
3 *343:23 *343:24 1.4
4 *343:22 *343:23 0.372866
5 *343:20 *343:22 1.4
6 *343:19 *655:S0 1.4
7 *343:19 *343:20 2.36149
8 *343:18 *343:19 0.372866
9 *343:16 *343:18 1.4
10 *343:15 *657:Y 1.4
11 *343:14 *343:16 3.72866
12 *343:14 *343:15 1.4
13 *343:13 *343:14 0.372866
14 *343:12 *343:13 1.4
15 *343:10 *343:12 2.61006
16 *343:9 *656:S0 1.4
17 *343:8 *343:10 1.4
18 *343:7 *343:9 1.4
19 *343:6 *343:8 0.497155
20 *343:6 *343:7 0.124289
21 *343:5 *343:6 1.4
22 *343:4 *343:5 2.2372
23 *343:3 *343:4 1.4
24 *343:2 *343:3 0.124289
25 *343:1 *343:2 1.4
26 *653:S0 *343:1 1.4
*END

*D_NET *344 0.00126758

*CONN
*I *652:D I *C 92.365 78.735 *L 0.00276 *D SDFFRHQX1
*I *656:Y O *C 98.165 75.835 *L 0 *D MX2X1

*CAP
1 *344:2 0.000415467
2 *344:3 0.000415467
3 *344:4 0.000218322
4 *344:5 0.000218322

*RES
1 *344:5 *656:Y 1.4
2 *344:4 *344:5 1.24289
3 *344:3 *344:4 1.4
4 *344:2 *344:3 2.48578
5 *344:1 *344:2 1.4
6 *652:D *344:1 1.4
*END

*D_NET *345 0.000801513

*CONN
*I *650:D I *C 89.755 73.515 *L 0.00279 *D SDFFSHQX1
*I *655:Y O *C 87.145 70.615 *L 0 *D MX2X1

*CAP
1 *345:2 0.000182228
2 *345:3 0.000182228
3 *345:4 0.000218528
4 *345:5 0.000218528

*RES
1 *345:5 *655:Y 1.4
2 *345:4 *345:5 1.24289
3 *345:3 *345:4 1.4
4 *345:2 *345:3 1.1186
5 *345:1 *345:2 1.4
6 *650:D *345:1 1.4
*END

*D_NET *346 0.00155455

*CONN
*I *649:D I *C 88.015 83.955 *L 0.00279 *D SDFFSHQX1
*I *654:Y O *C 86.275 75.835 *L 0 *D MX2X1

*CAP
1 *346:1 2.17156e-05
2 *346:2 2.17156e-05
3 *346:3 0.00012464
4 *346:4 0.00012464
5 *346:5 0.000630918
6 *346:6 0.000630918

*RES
1 *346:6 *654:Y 1.4
2 *346:5 *346:6 3.60437
3 *346:4 *346:5 1.4
4 *346:3 *346:4 0.745733
5 *346:2 *346:3 1.4
6 *346:1 *346:2 0.124289
7 *649:D *346:1 1.4
*END

*D_NET *347 0.00166375

*CONN
*I *651:D I *C 82.215 80.765 *L 0.00276 *D SDFFRHQX1
*I *653:Y O *C 93.525 81.055 *L 0 *D MX2X1

*CAP
1 *347:2 0.00081016
2 *347:3 0.00081016
3 *347:4 2.17156e-05
4 *347:5 2.17156e-05

*RES
1 *347:5 *653:Y 1.4
2 *347:4 *347:5 0.124289
3 *347:3 *347:4 1.4
4 *347:2 *347:3 4.84726
5 *347:1 *347:2 1.4
6 *651:D *347:1 1.4
*END

*D_NET *348 0.00166461

*CONN
*I *660:A0 I *C 52.925 16.095 *L 0.00158 *D AOI21XL
*I *663:B0 I *C 59.015 15.805 *L 0.00273 *D OAI2BB1X1
*I *665:Y O *C 62.785 15.515 *L 0 *D NOR2XL

*CAP
1 *348:1 5.9944e-05
2 *348:2 5.9944e-05
3 *348:3 0.000440021
4 *348:4 0.000712415
5 *348:5 0.000272394
6 *348:6 3.99626e-05
7 *348:7 1.99813e-05
8 *348:8 3.99626e-05
9 *348:9 1.99813e-05

*RES
1 *348:9 *665:Y 1.4
2 *348:8 *663:B0 1.4
3 *348:7 *348:9 0.124289
4 *348:6 *348:8 0.248578
5 *348:5 *348:7 1.4
6 *348:4 *348:6 1.4
7 *348:4 *348:5 1.61575
8 *348:3 *348:4 2.61006
9 *348:2 *348:3 1.4
10 *348:1 *348:2 0.372866
11 *660:A0 *348:1 1.4
*END

*D_NET *349 0.000715897

*CONN
*I *660:A1 I *C 52.345 16.385 *L 0.00163 *D AOI21XL
*I *664:Y O *C 48.285 15.225 *L 0 *D OAI211X1

*CAP
1 *349:2 0.000278848
2 *349:3 0.000278848
3 *349:4 7.91e-05
4 *349:5 7.91e-05

*RES
1 *349:5 *664:Y 1.4
2 *349:4 *349:5 0.497133
3 *349:3 *349:4 1.4
4 *349:2 *349:3 1.73997
5 *349:1 *349:2 1.4
6 *660:A1 *349:1 1.4
*END

*D_NET *350 0.00251951

*CONN
*I *662:A I *C 40.445 15.8675 *L 0.00163 *D INVXL
*I *661:B0 I *C 55.535 15.805 *L 0.00277 *D AOI21X1
*I *663:Y O *C 58.145 16.095 *L 0 *D OAI2BB1X1

*CAP
1 *350:1 6.81896e-07
2 *350:2 5.11422e-06
3 *350:3 4.43233e-06
4 *350:4 0.00104608
5 *350:5 0.00123466
6 *350:6 0.00018858
7 *350:8 1.99813e-05
8 *350:10 1.99813e-05

*RES
1 *350:10 *663:Y 1.4
2 *350:8 *350:10 0.124289
3 *350:7 *661:B0 1.4
4 *350:6 *350:8 1.4
5 *350:5 *350:7 1.4
6 *350:5 *350:6 1.1186
7 *350:4 *350:5 6.46279
8 *350:3 *350:4 1.4
9 *350:2 *350:3 0.0278566
10 *350:1 *350:2 0.00428563
11 *662:A *350:1 1.4
*END

*D_NET *351 0.00171991

*CONN
*I *660:B0 I *C 51.765 16.095 *L 0.00166 *D AOI21XL
*I *662:Y O *C 40.0825 15.805 *L 0 *D INVXL

*CAP
1 *351:1 3.955e-05
2 *351:2 3.955e-05
3 *351:3 0.000795176
4 *351:4 0.000795176
5 *351:5 1.9775e-05
6 *351:6 2.52302e-05
7 *351:7 5.45517e-06

*RES
1 *351:7 *662:Y 1.4
2 *351:6 *351:7 0.034285
3 *351:5 *351:6 0.124283
4 *351:4 *351:5 1.4
5 *351:3 *351:4 4.97133
6 *351:2 *351:3 1.4
7 *351:1 *351:2 0.248566
8 *660:B0 *351:1 1.4
*END

*D_NET *352 0.0122377

*CONN
*I *659:D I *C 78.155 75.545 *L 0.00276 *D SDFFRHQX1
*I *661:Y O *C 56.115 16.095 *L 0 *D AOI21X1

*CAP
1 *352:2 4.04482e-05
2 *352:3 4.04482e-05
3 *352:4 0.0044255
4 *352:5 0.0044255
5 *352:6 0.0016329
6 *352:7 0.0016329
7 *352:8 1.99813e-05
8 *352:9 1.99813e-05

*RES
1 *352:9 *661:Y 1.4
2 *352:8 *352:9 0.124289
3 *352:7 *352:8 1.4
4 *352:6 *352:7 9.69452
5 *352:5 *352:6 1.4
6 *352:4 *352:5 25.3542
7 *352:3 *352:4 1.4
8 *352:2 *352:3 0.248575
9 *352:1 *352:2 1.4
10 *659:D *352:1 1.4
*END

*D_NET *353 0.01177

*CONN
*I *658:D I *C 71.195 78.735 *L 0.00276 *D SDFFRHQX1
*I *660:Y O *C 51.945 16.46 *L 0 *D AOI21XL

*CAP
1 *353:2 0.00139068
2 *353:3 0.00139068
3 *353:4 0.00448683
4 *353:5 0.00448683
5 *353:7 7.50086e-06
6 *353:8 7.50086e-06

*RES
1 *353:8 *660:Y 1.4
2 *353:7 *353:8 0.0471419
3 *353:6 *353:7 1.4
4 *353:5 *353:6 1.4
5 *353:4 *353:5 26.6887
6 *353:3 *353:4 1.4
7 *353:2 *353:3 8.20305
8 *353:1 *353:2 1.4
9 *658:D *353:1 1.4
*END

*D_NET *354 0.00179822

*CONN
*I *670:D I *C 12.035 65.105 *L 0.00276 *D SDFFRHQX1
*I *681:Y O *C 10.9575 54.665 *L 0 *D INVX1

*CAP
1 *354:1 2.2535e-05
2 *354:2 2.2535e-05
3 *354:3 8.12419e-05
4 *354:4 8.12419e-05
5 *354:5 0.000788726
6 *354:6 0.000795331
7 *354:7 6.6051e-06

*RES
1 *354:7 *681:Y 1.4
2 *354:6 *354:7 0.0364294
3 *354:5 *354:6 4.35009
4 *354:4 *354:5 1.4
5 *354:3 *354:4 0.497155
6 *354:2 *354:3 1.4
7 *354:1 *354:2 0.124288
8 *670:D *354:1 1.4
*END

*D_NET *355 0.00637371

*CONN
*I *671:D I *C 24.505 73.515 *L 0.00276 *D SDFFRHQX1
*I *680:Y O *C 23.1375 33.785 *L 0 *D INVX1

*CAP
1 *355:2 6.09315e-05
2 *355:3 6.09315e-05
3 *355:4 0.00308006
4 *355:5 0.00308006
5 *355:6 3.9289e-05
6 *355:7 3.9289e-05
7 *355:8 6.57169e-06
8 *355:9 6.57169e-06

*RES
1 *355:9 *680:Y 1.4
2 *355:8 *355:9 0.0364295
3 *355:7 *355:8 1.4
4 *355:6 *355:7 0.248578
5 *355:5 *355:6 1.4
6 *355:4 *355:5 17.0275
7 *355:3 *355:4 1.4
8 *355:2 *355:3 0.372866
9 *355:1 *355:2 1.4
10 *671:D *355:1 1.4
*END

*D_NET *356 0.00855199

*CONN
*I *672:D I *C 7.685 73.515 *L 0.00276 *D SDFFRHQX1
*I *679:Y O *C 19.3675 28.565 *L 0 *D INVX1

*CAP
1 *356:1 0.00348364
2 *356:2 0.00348364
3 *356:3 0.000785781
4 *356:4 0.000785781
5 *356:5 6.57169e-06
6 *356:6 6.57169e-06

*RES
1 *356:6 *679:Y 1.4
2 *356:5 *356:6 0.0364295
3 *356:4 *356:5 1.4
4 *356:3 *356:4 4.97155
5 *356:2 *356:3 1.4
6 *356:1 *356:2 19.2647
7 *672:D *356:1 1.4
*END

*D_NET *357 0.00225337

*CONN
*I *673:D I *C 12.615 68.295 *L 0.00276 *D SDFFRHQX1
*I *678:Y O *C 13.5675 54.665 *L 0 *D INVX1

*CAP
1 *357:2 2.03105e-05
2 *357:3 2.03105e-05
3 *357:4 0.00105915
4 *357:5 0.00105915
5 *357:6 4.0621e-05
6 *357:7 4.0621e-05
7 *357:8 6.6051e-06
8 *357:9 6.6051e-06

*RES
1 *357:9 *678:Y 1.4
2 *357:8 *357:9 0.0364294
3 *357:7 *357:8 1.4
4 *357:6 *357:7 0.248578
5 *357:5 *357:6 1.4
6 *357:4 *357:5 5.84155
7 *357:3 *357:4 1.4
8 *357:2 *357:3 0.124289
9 *357:1 *357:2 1.4
10 *673:D *357:1 1.4
*END

*D_NET *358 0.00442056

*CONN
*I *669:D I *C 18.125 59.885 *L 0.00276 *D SDFFRHQX1
*I *677:Y O *C 20.8175 33.785 *L 0 *D INVX1

*CAP
1 *358:1 2.2535e-05
2 *358:2 2.2535e-05
3 *358:3 0.000182794
4 *358:4 0.000182794
5 *358:5 0.00199838
6 *358:6 0.00200495
7 *358:7 6.57169e-06

*RES
1 *358:7 *677:Y 1.4
2 *358:6 *358:7 0.0364295
3 *358:5 *358:6 11.0617
4 *358:4 *358:5 1.4
5 *358:3 *358:4 1.1186
6 *358:2 *358:3 1.4
7 *358:1 *358:2 0.124288
8 *669:D *358:1 1.4
*END

*D_NET *359 0.00801641

*CONN
*I *666:D I *C 12.325 70.325 *L 0.00276 *D SDFFRHQX1
*I *676:Y O *C 20.9425 26.535 *L 0 *D INVX1

*CAP
1 *359:2 0.000609315
2 *359:3 0.000609315
3 *359:4 0.0033927
4 *359:5 0.00339889
5 *359:6 6.18512e-06

*RES
1 *359:6 *676:Y 1.4
2 *359:5 *359:6 0.0342866
3 *359:4 *359:5 18.7676
4 *359:3 *359:4 1.4
5 *359:2 *359:3 3.72866
6 *359:1 *359:2 1.4
7 *666:D *359:1 1.4
*END

*D_NET *360 0.00681827

*CONN
*I *667:D I *C 27.405 65.105 *L 0.00276 *D SDFFRHQX1
*I *675:Y O *C 32.5425 23.345 *L 0 *D INVX1

*CAP
1 *360:1 2.12953e-05
2 *360:2 2.12953e-05
3 *360:3 0.000389746
4 *360:4 0.000389746
5 *360:5 0.00299264
6 *360:6 0.0029981
7 *360:7 5.45517e-06

*RES
1 *360:7 *675:Y 1.4
2 *360:6 *360:7 0.034285
3 *360:5 *360:6 17.7724
4 *360:4 *360:5 1.4
5 *360:3 *360:4 2.2372
6 *360:2 *360:3 1.4
7 *360:1 *360:2 0.124283
8 *667:D *360:1 1.4
*END

*D_NET *361 0.00587983

*CONN
*I *668:D I *C 23.635 70.325 *L 0.00276 *D SDFFRHQX1
*I *674:Y O *C 25.0025 33.785 *L 0 *D INVX1

*CAP
1 *361:2 0.000101552
2 *361:3 0.000101552
3 *361:4 0.00283218
4 *361:5 0.00283836
5 *361:6 6.18512e-06

*RES
1 *361:6 *674:Y 1.4
2 *361:5 *361:6 0.0342866
3 *361:4 *361:5 15.6604
4 *361:3 *361:4 1.4
5 *361:2 *361:3 0.621444
6 *361:1 *361:2 1.4
7 *668:D *361:1 1.4
*END

*D_NET *362 0.00103338

*CONN
*I *683:SI I *C 76.415 57.855 *L 0.00161 *D SDFFRXL
*I *682:QN O *C 73.225 54.375 *L 0 *D SDFFRXL

*CAP
1 *362:1 2.10714e-05
2 *362:2 2.10714e-05
3 *362:3 0.00022169
4 *362:4 0.00022169
5 *362:5 0.000273928
6 *362:6 0.000273928

*RES
1 *362:6 *682:QN 1.4
2 *362:5 *362:6 1.61568
3 *362:4 *362:5 1.4
4 *362:3 *362:4 1.36711
5 *362:2 *362:3 1.4
6 *362:1 *362:2 0.124283
7 *683:SI *362:1 1.4
*END

*D_NET *363 0.00133466

*CONN
*I *720:B0 I *C 105.995 39.005 *L 0.0028 *D OAI21X1
*I *770:Y O *C 99.905 42.775 *L 0 *D NAND2BX1

*CAP
1 *363:1 0.000259555
2 *363:2 0.000259555
3 *363:3 0.000407774
4 *363:4 0.000407774

*RES
1 *363:5 *770:Y 1.4
2 *363:4 *363:5 1.4
3 *363:3 *363:4 2.61003
4 *363:2 *363:3 1.4
5 *363:1 *363:2 1.61567
6 *720:B0 *363:1 1.4
*END

*D_NET *364 0.000344745

*CONN
*I *722:B1 I *C 95.265 36.975 *L 0.00284 *D AOI32X1
*I *769:Y O *C 95.845 38.715 *L 0 *D AO21X1

*CAP
1 *364:2 3.91796e-05
2 *364:3 3.91796e-05
3 *364:4 0.000133193
4 *364:5 0.000133193

*RES
1 *364:5 *769:Y 1.4
2 *364:4 *364:5 0.745696
3 *364:3 *364:4 1.4
4 *364:2 *364:3 0.248578
5 *364:1 *364:2 1.4
6 *722:B1 *364:1 1.4
*END

*D_NET *365 0.0037716

*CONN
*I *712:B1 I *C 92.945 33.785 *L 0.00274 *D OAI221X1
*I *769:A1 I *C 94.685 38.715 *L 0.00163 *D AO21X1
*I *722:A2 I *C 94.395 37.265 *L 0.00279 *D AOI32X1
*I *770:B I *C 99.905 42.195 *L 0.00284 *D NAND2BX1
*I *738:A I *C 99.045 39.2325 *L 0.00163 *D INVXL
*I *768:Y O *C 100.775 49.735 *L 0 *D NOR2BX2

*CAP
1 *365:2 0.000117539
2 *365:3 0.000117539
3 *365:4 0.000266385
4 *365:5 0.000377379
5 *365:6 0.00017759
6 *365:7 1.95898e-05
7 *365:8 6.65963e-05
8 *365:10 1.95898e-05
9 *365:11 0.000293847
10 *365:13 0.000352616
11 *365:15 5.87694e-05
12 *365:16 2.67916e-05
13 *365:17 0.000199789
14 *365:18 2.75571e-05
15 *365:19 0.000821355
16 *365:20 7.65475e-07
17 *365:21 0.000621566
18 *365:24 5.87694e-05
19 *365:25 5.87694e-05
20 *365:26 4.43976e-05
21 *365:27 4.43976e-05

*RES
1 *365:27 *768:Y 1.4
2 *365:26 *365:27 0.248565
3 *365:25 *365:26 1.4
4 *365:24 *365:25 0.372866
5 *365:21 *365:24 1.4
6 *365:20 *738:A 1.4
7 *365:19 *770:B 1.4
8 *365:19 *365:21 3.47991
9 *365:18 *365:20 0.00428561
10 *365:17 *365:19 1.11854
11 *365:16 *365:18 0.149996
12 *365:15 *365:17 1.4
13 *365:13 *365:16 1.4
14 *365:13 *365:15 0.372866
15 *365:12 *722:A2 1.4
16 *365:11 *365:13 1.86433
17 *365:10 *365:12 1.4
18 *365:8 *365:11 1.4
19 *365:7 *365:10 0.124289
20 *365:6 *769:A1 1.4
21 *365:6 *365:8 0.372848
22 *365:5 *365:7 1.4
23 *365:5 *365:6 0.621413
24 *365:4 *365:5 1.49139
25 *365:3 *365:4 1.4
26 *365:2 *365:3 0.745733
27 *365:1 *365:2 1.4
28 *712:B1 *365:1 1.4
*END

*D_NET *366 0.000532858

*CONN
*I *729:B0 I *C 86.275 65.395 *L 0.00277 *D AOI21X1
*I *767:Y O *C 89.465 64.815 *L 0 *D NOR3BX1

*CAP
1 *366:2 0.000222723
2 *366:3 0.000222723
3 *366:4 4.37057e-05
4 *366:5 4.37057e-05

*RES
1 *366:5 *767:Y 1.4
2 *366:4 *366:5 0.248578
3 *366:3 *366:4 1.4
4 *366:2 *366:3 1.36718
5 *366:1 *366:2 1.4
6 *729:B0 *366:1 1.4
*END

*D_NET *367 0.00228149

*CONN
*I *709:A1N I *C 95.845 47.125 *L 0.0017 *D OAI2BB1X1
*I *766:Y O *C 94.105 58.145 *L 0 *D CLKXOR2X1
*I *706:A1 I *C 92.655 47.125 *L 0.00271 *D OAI32X1

*CAP
1 *367:1 2.21988e-05
2 *367:2 2.21988e-05
3 *367:3 0.000117539
4 *367:4 0.000117539
5 *367:5 6.65963e-05
6 *367:6 0.00085866
7 *367:7 0.000792064
8 *367:8 9.79489e-05
9 *367:10 9.79489e-05
10 *367:11 4.43976e-05
11 *367:12 4.43976e-05

*RES
1 *367:12 *706:A1 1.4
2 *367:11 *367:12 0.248565
3 *367:10 *367:11 1.4
4 *367:8 *367:10 0.621444
5 *367:7 *766:Y 1.4
6 *367:6 *367:8 1.4
7 *367:6 *367:7 4.4743
8 *367:5 *367:6 0.372848
9 *367:4 *367:5 1.4
10 *367:3 *367:4 0.745733
11 *367:2 *367:3 1.4
12 *367:1 *367:2 0.124283
13 *709:A1N *367:1 1.4
*END

*D_NET *368 0.000503469

*CONN
*I *694:B0 I *C 83.955 54.665 *L 0.00277 *D AOI31X1
*I *765:Y O *C 87.18 54.895 *L 0 *D NOR2BXL

*CAP
1 *368:1 2.18528e-05
2 *368:2 2.18528e-05
3 *368:3 0.000222723
4 *368:4 0.000222723
5 *368:5 4.52128e-06
6 *368:6 7.15869e-06
7 *368:7 2.63741e-06

*RES
1 *368:7 *765:Y 1.4
2 *368:6 *368:7 0.0150004
3 *368:5 *368:6 0.0257149
4 *368:4 *368:5 1.4
5 *368:3 *368:4 1.36718
6 *368:2 *368:3 1.4
7 *368:1 *368:2 0.124289
8 *694:B0 *368:1 1.4
*END

*D_NET *369 0.000429712

*CONN
*I *697:B0 I *C 90.045 36.975 *L 0.00278 *D AOI211X1
*I *764:Y O *C 90.66 39.235 *L 0 *D NOR2BXL

*CAP
1 *369:1 2.21988e-05
2 *369:2 2.21988e-05
3 *369:3 3.91796e-05
4 *369:4 3.91796e-05
5 *369:5 0.000150799
6 *369:6 0.000153478
7 *369:7 2.67916e-06

*RES
1 *369:7 *764:Y 1.4
2 *369:6 *369:7 0.0149996
3 *369:5 *369:6 0.844265
4 *369:4 *369:5 1.4
5 *369:3 *369:4 0.248578
6 *369:2 *369:3 1.4
7 *369:1 *369:2 0.124283
8 *697:B0 *369:1 1.4
*END

*D_NET *370 0.000817534

*CONN
*I *735:A I *C 91.205 57.565 *L 0.00157 *D NAND2XL
*I *763:Y O *C 88.9675 60.175 *L 0 *D INVXL

*CAP
1 *370:1 0.000218528
2 *370:2 0.000218528
3 *370:3 0.000161981
4 *370:4 0.000161981
5 *370:5 2.18528e-05
6 *370:6 2.8258e-05
7 *370:7 6.40514e-06

*RES
1 *370:7 *763:Y 1.4
2 *370:6 *370:7 0.0364295
3 *370:5 *370:6 0.124289
4 *370:4 *370:5 1.4
5 *370:3 *370:4 0.99431
6 *370:2 *370:3 1.4
7 *370:1 *370:2 1.24289
8 *735:A *370:1 1.4
*END

*D_NET *371 0.000821959

*CONN
*I *699:A I *C 93.235 54.665 *L 0.00162 *D NOR2XL
*I *762:Y O *C 90.8325 54.665 *L 0 *D CLKINVX1
*I *765:B I *C 87.435 54.665 *L 0.00175 *D NOR2BXL

*CAP
1 *371:2 0.000161981
2 *371:3 0.000404951
3 *371:4 6.02837e-06
4 *371:5 0.000242971
5 *371:6 6.02837e-06

*RES
1 *371:7 *765:B 1.4
2 *371:6 *762:Y 1.4
3 *371:5 *371:7 1.4
4 *371:4 *371:6 0.0342866
5 *371:3 *371:5 1.49146
6 *371:3 *371:4 1.4
7 *371:2 *371:3 0.99431
8 *371:1 *371:2 1.4
9 *699:A *371:1 1.4
*END

*D_NET *372 0.00155102

*CONN
*I *773:AN I *C 90.915 52.345 *L 0.00174 *D NOR3BXL
*I *761:Y O *C 85.7775 49.445 *L 0 *D CLKINVX1
*I *696:A0 I *C 86.565 47.415 *L 0.00265 *D AOI21X1

*CAP
1 *372:1 0.000155218
2 *372:2 0.000155218
3 *372:3 0.000333026
4 *372:4 0.000333026
5 *372:5 6.65963e-05
6 *372:6 0.000221988
7 *372:7 1.95898e-05
8 *372:8 0.000155391
9 *372:9 1.95898e-05
10 *372:10 3.91796e-05
11 *372:11 6.50654e-06
12 *372:12 3.91796e-05
13 *372:13 6.50654e-06

*RES
1 *372:14 *696:A0 1.4
2 *372:13 *761:Y 1.4
3 *372:12 *372:14 1.4
4 *372:11 *372:13 0.0364277
5 *372:10 *372:12 0.248578
6 *372:9 *372:11 1.4
7 *372:8 *372:10 1.4
8 *372:7 *372:9 0.124289
9 *372:6 *372:8 0.869979
10 *372:6 *372:7 1.4
11 *372:5 *372:6 0.372848
12 *372:4 *372:5 1.4
13 *372:3 *372:4 2.11291
14 *372:2 *372:3 1.4
15 *372:1 *372:2 0.869982
16 *773:AN *372:1 1.4
*END

*D_NET *373 0.000830406

*CONN
*I *685:A0 I *C 73.515 52.635 *L 0.00271 *D OAI21X1
*I *760:Y O *C 70.9875 49.735 *L 0 *D INVXL

*CAP
1 *373:1 0.000201194
2 *373:2 0.000201194
3 *373:3 0.00018477
4 *373:4 0.00018477
5 *373:5 2.26116e-05
6 *373:6 2.92391e-05
7 *373:7 6.62753e-06

*RES
1 *373:7 *760:Y 1.4
2 *373:6 *373:7 0.0364295
3 *373:5 *373:6 0.124289
4 *373:4 *373:5 1.4
5 *373:3 *373:4 1.11855
6 *373:2 *373:3 1.4
7 *373:1 *373:2 1.11859
8 *685:A0 *373:1 1.4
*END

*D_NET *374 0.00038587

*CONN
*I *744:A I *C 105.415 57.855 *L 0.004 *D CLKAND2X3
*I *759:Y O *C 108.232 57.855 *L 0 *D INVX1

*CAP
1 *374:2 0.000187619
2 *374:3 0.000187619
3 *374:4 5.31641e-06
4 *374:5 5.31641e-06

*RES
1 *374:5 *759:Y 1.4
2 *374:4 *374:5 0.0342849
3 *374:3 *374:4 1.4
4 *374:2 *374:3 1.24283
5 *374:1 *374:2 1.4
6 *744:A *374:1 1.4
*END

*D_NET *375 0.000489608

*CONN
*I *703:A0 I *C 84.825 59.885 *L 0.00271 *D OAI21X1
*I *758:Y O *C 84.4525 62.785 *L 0 *D INVXL

*CAP
1 *375:1 0.000218528
2 *375:2 0.000218528
3 *375:3 2.02476e-05
4 *375:4 2.02476e-05
5 *375:5 6.02837e-06
6 *375:6 6.02837e-06

*RES
1 *375:6 *758:Y 1.4
2 *375:5 *375:6 0.0342866
3 *375:4 *375:5 1.4
4 *375:3 *375:4 0.124289
5 *375:2 *375:3 1.4
6 *375:1 *375:2 1.24289
7 *703:A0 *375:1 1.4
*END

*D_NET *376 0.00420028

*CONN
*I *772:B I *C 109.185 49.735 *L 0.00349 *D XNOR2XL
*I *736:A0N I *C 102.805 52.345 *L 0.00172 *D AOI2BB1X1
*I *716:B I *C 102.225 65.395 *L 0.00273 *D NOR4X1
*I *757:Y O *C 107.527 65.105 *L 0 *D CLKINVX1

*CAP
1 *376:1 0.000179345
2 *376:2 0.000179345
3 *376:3 0.000420932
4 *376:4 0.00052217
5 *376:6 0.000101238
6 *376:8 0.000961524
7 *376:9 0.000961524
8 *376:10 6.07427e-05
9 *376:11 0.000409599
10 *376:12 0.000348856
11 *376:13 2.18528e-05
12 *376:14 5.64869e-06
13 *376:15 2.18528e-05
14 *376:16 5.64869e-06

*RES
1 *376:16 *757:Y 1.4
2 *376:15 *716:B 1.4
3 *376:14 *376:16 0.0364277
4 *376:13 *376:15 0.124289
5 *376:12 *376:14 1.4
6 *376:11 *376:13 1.4
7 *376:11 *376:12 2.23714
8 *376:10 *376:11 0.372866
9 *376:9 *376:10 1.4
10 *376:8 *376:9 5.46871
11 *376:6 *376:8 1.4
12 *376:5 *736:A0N 1.4
13 *376:4 *376:6 0.621444
14 *376:4 *376:5 1.4
15 *376:3 *376:4 2.73426
16 *376:2 *376:3 1.4
17 *376:1 *376:2 1.11854
18 *772:B *376:1 1.4
*END

*D_NET *377 0.00157022

*CONN
*I *726:A1 I *C 94.395 31.755 *L 0.00269 *D AOI31X1
*I *725:A1 I *C 99.035 31.465 *L 0.00267 *D OAI31X1
*I *742:B I *C 95.84 29.195 *L 0.00164 *D MXI2XL
*I *756:Y O *C 99.6975 28.565 *L 0 *D CLKINVX1

*CAP
1 *377:1 0.000199789
2 *377:2 0.000199789
3 *377:3 9.79489e-05
4 *377:4 0.000313437
5 *377:5 0.000215488
6 *377:6 3.82738e-06
7 *377:7 0.000221988
8 *377:8 4.21011e-06
9 *377:9 0.00017759
10 *377:10 4.43976e-05
11 *377:11 3.82738e-07
12 *377:13 3.91796e-05
13 *377:15 3.91796e-05
14 *377:16 6.50654e-06
15 *377:17 6.50654e-06

*RES
1 *377:17 *756:Y 1.4
2 *377:16 *377:17 0.0364277
3 *377:15 *377:16 1.4
4 *377:13 *377:15 0.248578
5 *377:11 *742:B 1.4
6 *377:10 *377:13 1.4
7 *377:9 *725:A1 1.4
8 *377:8 *377:11 0.0021428
9 *377:7 *377:10 0.248565
10 *377:7 *377:9 0.994261
11 *377:6 *377:8 0.021428
12 *377:5 *377:7 1.4
13 *377:4 *377:6 1.4
14 *377:4 *377:5 1.36718
15 *377:3 *377:4 0.621444
16 *377:2 *377:3 1.4
17 *377:1 *377:2 1.11854
18 *726:A1 *377:1 1.4
*END

*D_NET *378 0.00274442

*CONN
*I *684:A0 I *C 78.735 52.635 *L 0.00271 *D OAI21X1
*I *755:Y O *C 65.4775 57.565 *L 0 *D INVXL

*CAP
1 *378:2 0.000967515
2 *378:3 0.000967515
3 *378:4 0.000358214
4 *378:5 0.000358214
5 *378:6 4.03072e-05
6 *378:7 4.03072e-05
7 *378:8 6.1761e-06
8 *378:9 6.1761e-06

*RES
1 *378:9 *755:Y 1.4
2 *378:8 *378:9 0.0364278
3 *378:7 *378:8 1.4
4 *378:6 *378:7 0.248566
5 *378:5 *378:6 1.4
6 *378:4 *378:5 2.11281
7 *378:3 *378:4 1.4
8 *378:2 *378:3 5.9656
9 *378:1 *378:2 1.4
10 *684:A0 *378:1 1.4
*END

*D_NET *379 0.00293097

*CONN
*I *715:D I *C 94.395 68.295 *L 0.00166 *D NAND4XL
*I *739:B I *C 95.555 60.175 *L 0.00167 *D NAND2XL
*I *730:C I *C 97.875 65.105 *L 0.00168 *D NAND3XL
*I *743:B I *C 98.455 59.885 *L 0.00284 *D NAND2BX1
*I *750:Y O *C 103.675 59.595 *L 0 *D CLKINVX2

*CAP
1 *379:1 2.18528e-05
2 *379:2 2.18528e-05
3 *379:3 8.09903e-05
4 *379:4 8.09903e-05
5 *379:5 0.000218528
6 *379:6 0.000590026
7 *379:7 0.000161981
8 *379:8 0.000393351
9 *379:9 0.000161981
10 *379:11 2.18528e-05
11 *379:13 0.000202476
12 *379:15 0.000566932
13 *379:16 0.000364456
14 *379:18 2.18528e-05
15 *379:20 2.18528e-05

*RES
1 *379:20 *750:Y 1.4
2 *379:18 *379:20 0.124289
3 *379:17 *743:B 1.4
4 *379:16 *379:18 1.4
5 *379:15 *379:17 1.4
6 *379:15 *379:16 2.2372
7 *379:13 *379:15 1.24289
8 *379:12 *730:C 1.4
9 *379:11 *379:13 1.4
10 *379:9 *379:12 1.4
11 *379:8 *379:11 0.124289
12 *379:8 *739:B 1.4
13 *379:7 *379:9 0.99431
14 *379:6 *379:8 2.11291
15 *379:6 *379:7 1.4
16 *379:5 *379:6 1.24289
17 *379:4 *379:5 1.4
18 *379:3 *379:4 0.497155
19 *379:2 *379:3 1.4
20 *379:1 *379:2 0.124289
21 *715:D *379:1 1.4
*END

*D_NET *380 0.00541524

*CONN
*I *716:D I *C 103.095 65.395 *L 0.00283 *D NOR4X1
*I *750:A I *C 103.095 59.885 *L 0.00521 *D CLKINVX2
*I *734:C I *C 100.195 57.565 *L 0.00278 *D NOR3X1
*I *768:AN I *C 102.515 50.025 *L 0.00173 *D NOR2BX2
*I *772:A I *C 110.635 49.6875 *L 0.00178 *D XNOR2XL
*I *754:Y O *C 110.925 57.275 *L 0 *D NAND2X4

*CAP
1 *380:2 0.000141733
2 *380:3 0.000141733
3 *380:4 0.000415204
4 *380:5 0.000568174
5 *380:6 0.000141733
6 *380:7 0.00015297
7 *380:8 0.000141733
8 *380:9 2.02476e-05
9 *380:11 6.07427e-05
10 *380:13 0.000592621
11 *380:14 4.04951e-05
12 *380:15 0.000592621
13 *380:16 2.18528e-05
14 *380:17 0.000117539
15 *380:18 2.18528e-05
16 *380:19 0.000651936
17 *380:21 0.000534397
18 *380:23 0.000510067
19 *380:25 0.000487003
20 *380:26 2.30639e-05
21 *380:27 1.87619e-05
22 *380:29 1.87619e-05

*RES
1 *380:30 *754:Y 1.4
2 *380:29 *380:30 1.4
3 *380:27 *380:29 0.124283
4 *380:26 *772:A 1.4
5 *380:25 *380:27 1.4
6 *380:23 *380:26 0.143568
7 *380:23 *380:25 3.10707
8 *380:22 *768:AN 1.4
9 *380:21 *380:23 1.4
10 *380:19 *380:22 1.4
11 *380:19 *380:21 3.47997
12 *380:18 *734:C 1.4
13 *380:17 *380:19 0.745733
14 *380:16 *380:18 0.124289
15 *380:15 *380:17 1.4
16 *380:14 *380:16 1.4
17 *380:13 *380:15 3.35575
18 *380:11 *380:14 0.248578
19 *380:11 *380:13 1.4
20 *380:10 *750:A 1.4
21 *380:9 *380:11 0.124289
22 *380:8 *380:10 1.4
23 *380:7 *380:9 1.4
24 *380:6 *380:8 0.870021
25 *380:5 *380:7 0.870021
26 *380:5 *380:6 1.4
27 *380:4 *380:5 2.36149
28 *380:3 *380:4 1.4
29 *380:2 *380:3 0.870021
30 *380:1 *380:2 1.4
31 *716:D *380:1 1.4
*END

*D_NET *381 0.00222536

*CONN
*I *731:A0 I *C 89.755 31.755 *L 0.00271 *D OAI21X1
*I *726:B0 I *C 93.525 31.755 *L 0.00277 *D AOI31X1
*I *725:A2 I *C 98.745 31.755 *L 0.00279 *D OAI31X1
*I *753:Y O *C 104.255 31.175 *L 0 *D NOR2XL

*CAP
1 *381:1 2.21988e-05
2 *381:2 2.21988e-05
3 *381:3 0.000254667
4 *381:4 0.000607283
5 *381:5 0.000724822
6 *381:6 2.21988e-05
7 *381:7 0.000372206
8 *381:8 2.21988e-05
9 *381:9 2.21988e-05
10 *381:10 6.65963e-05
11 *381:11 2.21988e-05
12 *381:13 6.65963e-05

*RES
1 *381:13 *753:Y 1.4
2 *381:11 *725:A2 1.4
3 *381:10 *381:13 0.372848
4 *381:9 *726:B0 1.4
5 *381:8 *381:11 0.124283
6 *381:7 *381:10 1.4
7 *381:6 *381:9 0.124283
8 *381:5 *381:8 1.4
9 *381:5 *381:7 2.36149
10 *381:4 *381:6 1.4
11 *381:4 *381:5 2.2372
12 *381:3 *381:4 1.61575
13 *381:2 *381:3 1.4
14 *381:1 *381:2 0.124283
15 *731:A0 *381:1 1.4
*END

*D_NET *382 0.00255473

*CONN
*I *749:A I *C 92.645 28.7925 *L 0.00163 *D INVXL
*I *726:A2 I *C 93.815 31.755 *L 0.00276 *D AOI31X1
*I *725:B0 I *C 98.455 31.755 *L 0.00282 *D OAI31X1
*I *752:Y O *C 108.025 32.045 *L 0 *D NAND2XL

*CAP
1 *382:1 7.65475e-07
2 *382:2 0.000227346
3 *382:3 0.000226581
4 *382:4 7.83592e-05
5 *382:5 0.000391796
6 *382:6 0.000951692
7 *382:8 0.000638256
8 *382:11 1.99657e-05
9 *382:13 1.99657e-05

*RES
1 *382:13 *752:Y 1.4
2 *382:11 *382:13 0.124283
3 *382:9 *725:B0 1.4
4 *382:8 *382:11 1.4
5 *382:7 *726:A2 1.4
6 *382:6 *382:9 1.4
7 *382:6 *382:8 4.10146
8 *382:5 *382:7 1.4
9 *382:5 *382:6 1.98862
10 *382:4 *382:5 0.497155
11 *382:3 *382:4 1.4
12 *382:2 *382:3 1.26854
13 *382:1 *382:2 0.00428561
14 *749:A *382:1 1.4
*END

*D_NET *383 0.000881981

*CONN
*I *731:A1 I *C 89.465 31.465 *L 0.00274 *D OAI21X1
*I *749:Y O *C 92.2825 28.855 *L 0 *D INVXL

*CAP
1 *383:2 1.95898e-05
2 *383:3 1.95898e-05
3 *383:4 0.000199789
4 *383:5 0.000199789
5 *383:6 0.000215488
6 *383:7 0.000215488
7 *383:8 6.1238e-06
8 *383:9 6.1238e-06

*RES
1 *383:9 *749:Y 1.4
2 *383:8 *383:9 0.0342849
3 *383:7 *383:8 1.4
4 *383:6 *383:7 1.36718
5 *383:5 *383:6 1.4
6 *383:4 *383:5 1.11854
7 *383:3 *383:4 1.4
8 *383:2 *383:3 0.124289
9 *383:1 *383:2 1.4
10 *731:A1 *383:1 1.4
*END

*D_NET *384 0.00144426

*CONN
*I *748:A I *C 99.035 70.325 *L 0.00273 *D CLKINVX1
*I *751:Y O *C 101.355 70.905 *L 0 *D NAND2X1
*I *716:C I *C 102.805 65.395 *L 0.00274 *D NOR4X1

*CAP
1 *384:1 4.37057e-05
2 *384:2 4.37057e-05
3 *384:3 0.000161981
4 *384:4 0.000161981
5 *384:5 0.000415204
6 *384:7 0.000415204
7 *384:8 0.000101238
8 *384:9 0.000101238

*RES
1 *384:10 *716:C 1.4
2 *384:9 *384:10 1.4
3 *384:8 *384:9 0.621444
4 *384:7 *384:8 1.4
5 *384:5 *384:7 2.36149
6 *384:5 *751:Y 1.4
7 *384:4 *384:5 1.4
8 *384:3 *384:4 0.99431
9 *384:2 *384:3 1.4
10 *384:1 *384:2 0.248578
11 *748:A *384:1 1.4
*END

*D_NET *385 0.00136569

*CONN
*I *730:B I *C 98.165 65.105 *L 0.00166 *D NAND3XL
*I *715:C I *C 94.685 68.295 *L 0.00164 *D NAND4XL
*I *748:Y O *C 98.6625 70.325 *L 0 *D CLKINVX1

*CAP
1 *385:1 0.000240381
2 *385:2 0.000240381
3 *385:3 0.000283466
4 *385:4 4.04951e-05
5 *385:5 0.000242971
6 *385:6 0.00015297
7 *385:8 0.000158998
8 *385:10 6.02837e-06

*RES
1 *385:10 *748:Y 1.4
2 *385:8 *385:10 0.0342866
3 *385:7 *715:C 1.4
4 *385:6 *385:8 0.870021
5 *385:5 *385:7 1.4
6 *385:4 *385:6 1.4
7 *385:3 *385:5 1.49146
8 *385:3 *385:4 0.248578
9 *385:2 *385:3 1.4
10 *385:1 *385:2 1.36718
11 *730:B *385:1 1.4
*END

*D_NET *386 0.000611603

*CONN
*I *744:B I *C 105.125 57.565 *L 0.00381 *D CLKAND2X3
*I *746:Y O *C 106.575 60.755 *L 0 *D NOR2X2

*CAP
1 *386:1 3.8544e-05
2 *386:2 3.8544e-05
3 *386:3 9.38093e-05
4 *386:4 9.38093e-05
5 *386:5 0.000173448
6 *386:6 0.000173448

*RES
1 *386:6 *746:Y 1.4
2 *386:5 *386:6 1.11854
3 *386:4 *386:5 1.4
4 *386:3 *386:4 0.621417
5 *386:2 *386:3 1.4
6 *386:1 *386:2 0.248565
7 *744:B *386:1 1.4
*END

*D_NET *387 0.00111188

*CONN
*I *768:B I *C 101.935 49.735 *L 0.00538 *D NOR2BX2
*I *736:A1N I *C 103.385 52.635 *L 0.00169 *D AOI2BB1X1
*I *747:Y O *C 106.285 53.215 *L 0 *D NOR2X1

*CAP
1 *387:2 9.79489e-05
2 *387:3 9.79489e-05
3 *387:4 0.000221469
4 *387:5 0.000265175
5 *387:6 4.37057e-05
6 *387:8 0.000192819
7 *387:9 0.000192819

*RES
1 *387:10 *747:Y 1.4
2 *387:9 *387:10 1.4
3 *387:8 *387:9 1.24285
4 *387:6 *387:8 1.4
5 *387:5 *736:A1N 1.4
6 *387:5 *387:6 0.248578
7 *387:4 *387:5 1.24284
8 *387:3 *387:4 1.4
9 *387:2 *387:3 0.621444
10 *387:1 *387:2 1.4
11 *768:B *387:1 1.4
*END

*D_NET *388 0.000804723

*CONN
*I *734:B I *C 99.905 57.855 *L 0.00272 *D NOR3X1
*I *743:AN I *C 99.325 59.885 *L 0.00178 *D NAND2BX1
*I *745:Y O *C 101.355 60.465 *L 0 *D NAND2X1

*CAP
1 *388:2 2.02476e-05
2 *388:3 2.02476e-05
3 *388:4 0.00015297
4 *388:5 0.000218528
5 *388:6 6.55585e-05
6 *388:7 2.02476e-05
7 *388:8 0.000121485
8 *388:9 2.02476e-05
9 *388:10 0.000121485
10 *388:12 2.18528e-05
11 *388:14 2.18528e-05

*RES
1 *388:14 *745:Y 1.4
2 *388:12 *388:14 0.124289
3 *388:11 *743:AN 1.4
4 *388:10 *388:12 1.4
5 *388:9 *388:11 1.4
6 *388:8 *388:10 0.745732
7 *388:7 *388:9 0.124289
8 *388:6 *388:8 1.4
9 *388:5 *388:7 1.4
10 *388:5 *388:6 0.372866
11 *388:4 *388:5 0.870021
12 *388:3 *388:4 1.4
13 *388:2 *388:3 0.124289
14 *388:1 *388:2 1.4
15 *734:B *388:1 1.4
*END

*D_NET *389 0.000942261

*CONN
*I *733:A1 I *C 97.295 54.665 *L 0.00278 *D AOI21X1
*I *743:Y O *C 98.455 59.305 *L 0 *D NAND2BX1

*CAP
1 *389:2 0.000101238
2 *389:3 0.000101238
3 *389:4 0.000349645
4 *389:5 0.000349645
5 *389:6 2.02476e-05
6 *389:7 2.02476e-05

*RES
1 *389:8 *743:Y 1.4
2 *389:7 *389:8 1.4
3 *389:6 *389:7 0.124289
4 *389:5 *389:6 1.4
5 *389:4 *389:5 1.98862
6 *389:3 *389:4 1.4
7 *389:2 *389:3 0.621444
8 *389:1 *389:2 1.4
9 *733:A1 *389:1 1.4
*END

*D_NET *390 0.00159062

*CONN
*I *731:B0 I *C 88.885 31.755 *L 0.0028 *D OAI21X1
*I *742:Y O *C 96.715 28.275 *L 0 *D MXI2XL

*CAP
1 *390:1 0.000266385
2 *390:2 0.000266385
3 *390:3 0.000528924
4 *390:4 0.000528924

*RES
1 *390:5 *742:Y 1.4
2 *390:4 *390:5 1.4
3 *390:3 *390:4 3.3558
4 *390:2 *390:3 1.4
5 *390:1 *390:2 1.49139
6 *731:B0 *390:1 1.4
*END

*D_NET *391 0.00197069

*CONN
*I *767:C I *C 89.755 65.105 *L 0.00291 *D NOR3BX1
*I *718:C I *C 87.725 62.785 *L 0.00278 *D NOR3X1
*I *732:A I *C 91.205 60.175 *L 0.0017 *D MXI2XL
*I *740:Y O *C 93.815 63.365 *L 0 *D CLKINVX2

*CAP
1 *391:2 6.07427e-05
2 *391:3 6.07427e-05
3 *391:4 0.000174823
4 *391:5 0.000218528
5 *391:6 8.09903e-05
6 *391:7 4.37057e-05
7 *391:8 8.09903e-05
8 *391:9 0.000202476
9 *391:11 0.000202476
10 *391:13 0.000174823
11 *391:14 2.18528e-05
12 *391:15 0.00015297
13 *391:16 0.000141733
14 *391:17 4.04951e-05
15 *391:18 0.000141733
16 *391:19 4.04951e-05
17 *391:20 6.55585e-05
18 *391:22 6.55585e-05

*RES
1 *391:22 *740:Y 1.4
2 *391:21 *732:A 1.4
3 *391:20 *391:22 0.372866
4 *391:19 *391:21 1.4
5 *391:18 *391:20 1.4
6 *391:17 *391:19 0.248578
7 *391:16 *391:18 0.870021
8 *391:15 *391:17 1.4
9 *391:14 *391:16 1.4
10 *391:13 *391:15 0.870021
11 *391:13 *391:14 0.124289
12 *391:11 *391:13 1.4
13 *391:10 *718:C 1.4
14 *391:9 *391:11 1.24289
15 *391:8 *391:10 1.4
16 *391:7 *391:9 1.4
17 *391:6 *391:8 0.497155
18 *391:5 *391:7 0.248578
19 *391:5 *391:6 1.4
20 *391:4 *391:5 0.99431
21 *391:3 *391:4 1.4
22 *391:2 *391:3 0.372866
23 *391:1 *391:2 1.4
24 *767:C *391:1 1.4
*END

*D_NET *392 0.00389673

*CONN
*I *737:B I *C 91.785 62.785 *L 0.00167 *D NAND2XL
*I *740:A I *C 93.235 63.075 *L 0.00521 *D CLKINVX2
*I *732:B I *C 92.37 60.515 *L 0.00164 *D MXI2XL
*I *735:B I *C 91.785 57.565 *L 0.00167 *D NAND2XL
*I *744:Y O *C 103.965 58.145 *L 0 *D CLKAND2X3
*I *736:B0 I *C 102.225 52.055 *L 0.00276 *D AOI2BB1X1

*CAP
1 *392:1 2.18528e-05
2 *392:2 2.18528e-05
3 *392:3 4.04951e-05
4 *392:4 0.000101238
5 *392:5 6.07427e-05
6 *392:6 0.000192908
7 *392:8 0.000415581
8 *392:10 3.76773e-07
9 *392:11 0.000222296
10 *392:13 0.000647922
11 *392:14 0.000607427
12 *392:15 4.04951e-05
13 *392:16 2.18528e-05
14 *392:18 0.000415377
15 *392:20 0.000202476
16 *392:21 0.000393524
17 *392:22 0.000202476
18 *392:23 7.83592e-05
19 *392:24 6.55585e-05
20 *392:25 7.83592e-05
21 *392:26 6.55585e-05

*RES
1 *392:27 *736:B0 1.4
2 *392:26 *744:Y 1.4
3 *392:25 *392:27 1.4
4 *392:24 *392:26 0.372866
5 *392:23 *392:25 0.497155
6 *392:22 *392:24 1.4
7 *392:21 *392:23 1.4
8 *392:20 *392:22 1.24289
9 *392:18 *392:21 2.23719
10 *392:18 *392:20 1.4
11 *392:17 *735:B 1.4
12 *392:16 *392:18 0.124289
13 *392:15 *392:17 1.4
14 *392:14 *392:16 1.4
15 *392:13 *392:15 0.248578
16 *392:13 *392:14 3.72866
17 *392:11 *392:13 1.4
18 *392:10 *732:B 1.4
19 *392:8 *392:11 1.26432
20 *392:8 *392:10 0.00214291
21 *392:7 *740:A 1.4
22 *392:6 *392:8 1.09717
23 *392:5 *392:7 1.4
24 *392:4 *392:6 1.4
25 *392:4 *392:5 0.372866
26 *392:3 *392:4 0.248578
27 *392:2 *392:3 1.4
28 *392:1 *392:2 0.124289
29 *737:B *392:1 1.4
*END

*D_NET *393 0.00125462

*CONN
*I *767:AN I *C 90.915 65.105 *L 0.0018 *D NOR3BX1
*I *737:A I *C 91.205 62.785 *L 0.00157 *D NAND2XL
*I *741:Y O *C 90.335 70.035 *L 0 *D NOR3X1

*CAP
1 *393:2 2.02476e-05
2 *393:3 2.02476e-05
3 *393:4 0.000546321
4 *393:5 0.000371498
5 *393:6 0.000174823
6 *393:7 6.07427e-05
7 *393:9 6.07427e-05

*RES
1 *393:10 *741:Y 1.4
2 *393:9 *393:10 1.4
3 *393:7 *393:9 0.372866
4 *393:6 *737:A 1.4
5 *393:5 *393:7 1.4
6 *393:4 *393:6 0.99431
7 *393:4 *393:5 2.11291
8 *393:3 *393:4 1.4
9 *393:2 *393:3 0.124289
10 *393:1 *393:2 1.4
11 *767:AN *393:1 1.4
*END

*D_NET *394 0.00113604

*CONN
*I *721:A1 I *C 97.585 33.495 *L 0.00163 *D AOI21XL
*I *738:Y O *C 99.4075 39.295 *L 0 *D INVXL

*CAP
1 *394:2 0.000117539
2 *394:3 0.000117539
3 *394:4 0.000443976
4 *394:5 0.000450482
5 *394:6 6.50654e-06

*RES
1 *394:6 *738:Y 1.4
2 *394:5 *394:6 0.0364277
3 *394:4 *394:5 2.48565
4 *394:3 *394:4 1.4
5 *394:2 *394:3 0.745733
6 *394:1 *394:2 1.4
7 *721:A1 *394:1 1.4
*END

*D_NET *395 0.000471131

*CONN
*I *766:A I *C 94.685 57.275 *L 0.00183 *D CLKXOR2X1
*I *739:Y O *C 95.555 59.595 *L 0 *D NAND2XL

*CAP
1 *395:2 6.07427e-05
2 *395:3 6.07427e-05
3 *395:4 0.000174823
4 *395:5 0.000174823

*RES
1 *395:5 *739:Y 1.4
2 *395:4 *395:5 0.99431
3 *395:3 *395:4 1.4
4 *395:2 *395:3 0.372866
5 *395:1 *395:2 1.4
6 *766:A *395:1 1.4
*END

*D_NET *396 0.0016371

*CONN
*I *703:B0 I *C 85.695 59.885 *L 0.0028 *D OAI21X1
*I *737:Y O *C 91.785 63.365 *L 0 *D NAND2XL
*I *729:A1 I *C 85.985 65.105 *L 0.00278 *D AOI21X1

*CAP
1 *396:1 0.000262234
2 *396:2 0.000262234
3 *396:3 2.02476e-05
4 *396:4 0.000425199
5 *396:5 0.000404951
6 *396:6 0.000131117
7 *396:8 0.000131117

*RES
1 *396:8 *729:A1 1.4
2 *396:7 *737:Y 1.4
3 *396:6 *396:8 0.745733
4 *396:5 *396:7 1.4
5 *396:4 *396:6 1.4
6 *396:4 *396:5 2.48577
7 *396:3 *396:4 0.124289
8 *396:2 *396:3 1.4
9 *396:1 *396:2 1.49147
10 *703:B0 *396:1 1.4
*END

*D_NET *397 0.00413857

*CONN
*I *712:A1 I *C 93.525 34.075 *L 0.00266 *D OAI221X1
*I *722:B0 I *C 95.845 36.975 *L 0.00266 *D AOI32X1
*I *736:Y O *C 101.645 52.635 *L 0 *D AOI2BB1X1

*CAP
1 *397:1 2.21988e-05
2 *397:2 2.21988e-05
3 *397:3 0.000156718
4 *397:4 0.000156718
5 *397:5 0.000199789
6 *397:6 0.00144171
7 *397:7 0.00124192
8 *397:9 0.000404951
9 *397:10 0.000404951
10 *397:11 4.37057e-05
11 *397:12 4.37057e-05

*RES
1 *397:12 *736:Y 1.4
2 *397:11 *397:12 0.248578
3 *397:10 *397:11 1.4
4 *397:9 *397:10 2.48577
5 *397:7 *397:9 1.4
6 *397:6 *722:B0 1.4
7 *397:6 *397:7 6.95985
8 *397:5 *397:6 1.11854
9 *397:4 *397:5 1.4
10 *397:3 *397:4 0.99431
11 *397:2 *397:3 1.4
12 *397:1 *397:2 0.124283
13 *712:A1 *397:1 1.4
*END

*D_NET *398 0.000570142

*CONN
*I *713:A1 I *C 88.015 57.855 *L 0.00278 *D AOI21X1
*I *735:Y O *C 91.785 58.145 *L 0 *D NAND2XL

*CAP
1 *398:1 2.18528e-05
2 *398:2 2.18528e-05
3 *398:3 0.000263218
4 *398:4 0.000263218

*RES
1 *398:5 *735:Y 1.4
2 *398:4 *398:5 1.4
3 *398:3 *398:4 1.61575
4 *398:2 *398:3 1.4
5 *398:1 *398:2 0.124289
6 *713:A1 *398:1 1.4
*END

*D_NET *399 0.000885713

*CONN
*I *733:B0 I *C 97.005 54.955 *L 0.00277 *D AOI21X1
*I *734:Y O *C 99.905 58.145 *L 0 *D NOR3X1

*CAP
1 *399:2 0.000202476
2 *399:3 0.000202476
3 *399:4 0.000240381
4 *399:5 0.000240381

*RES
1 *399:5 *734:Y 1.4
2 *399:4 *399:5 1.36718
3 *399:3 *399:4 1.4
4 *399:2 *399:3 1.24289
5 *399:1 *399:2 1.4
6 *733:B0 *399:1 1.4
*END

*D_NET *400 0.00416986

*CONN
*I *687:A I *C 81.055 52.635 *L 0.00579 *D NAND3X2
*I *731:Y O *C 88.595 32.045 *L 0 *D OAI21X1

*CAP
1 *400:1 0.0015534
2 *400:2 0.0015534
3 *400:3 0.000509334
4 *400:4 0.000509334
5 *400:5 2.21988e-05
6 *400:6 2.21988e-05

*RES
1 *400:6 *731:Y 1.4
2 *400:5 *400:6 0.124283
3 *400:4 *400:5 1.4
4 *400:3 *400:4 3.23151
5 *400:2 *400:3 1.4
6 *400:1 *400:2 8.6998
7 *687:A *400:1 1.4
*END

*D_NET *401 0.00252487

*CONN
*I *727:B I *C 96.715 42.485 *L 0.00284 *D NAND2X1
*I *733:Y O *C 96.425 54.665 *L 0 *D AOI21X1
*I *706:B1 I *C 91.785 47.125 *L 0.00282 *D OAI32X1

*CAP
1 *401:1 0.00035518
2 *401:2 0.00035518
3 *401:3 1.95898e-05
4 *401:4 0.000333026
5 *401:5 0.000574228
6 *401:6 0.000313437
7 *401:7 0.000574228

*RES
1 *401:8 *706:B1 1.4
2 *401:7 *733:Y 1.4
3 *401:6 *401:8 1.4
4 *401:5 *401:7 3.2314
5 *401:4 *401:6 1.98862
6 *401:4 *401:5 1.4
7 *401:3 *401:4 0.124289
8 *401:2 *401:3 1.4
9 *401:1 *401:2 1.98852
10 *727:B *401:1 1.4
*END

*D_NET *402 0.00316854

*CONN
*I *717:B I *C 90.915 42.195 *L 0.0028 *D NOR2BX1
*I *732:Y O *C 91.495 59.595 *L 0 *D MXI2XL
*I *764:AN I *C 91.495 39.295 *L 0.00174 *D NOR2BXL

*CAP
1 *402:2 3.91796e-05
2 *402:3 3.91796e-05
3 *402:4 0.00154509
4 *402:5 0.0013231
5 *402:6 0.000221988

*RES
1 *402:6 *764:AN 1.4
2 *402:5 *732:Y 1.4
3 *402:4 *402:6 1.24283
4 *402:4 *402:5 7.45712
5 *402:3 *402:4 1.4
6 *402:2 *402:3 0.248578
7 *402:1 *402:2 1.4
8 *717:B *402:1 1.4
*END

*D_NET *403 0.000514836

*CONN
*I *714:A1 I *C 96.715 63.075 *L 0.00278 *D AOI21X1
*I *730:Y O *C 97.585 65.685 *L 0 *D NAND3XL

*CAP
1 *403:2 2.02476e-05
2 *403:3 2.02476e-05
3 *403:4 0.000196675
4 *403:5 0.000196675
5 *403:6 4.04951e-05
6 *403:7 4.04951e-05

*RES
1 *403:8 *730:Y 1.4
2 *403:7 *403:8 1.4
3 *403:6 *403:7 0.248578
4 *403:5 *403:6 1.4
5 *403:4 *403:5 1.1186
6 *403:3 *403:4 1.4
7 *403:2 *403:3 0.124289
8 *403:1 *403:2 1.4
9 *714:A1 *403:1 1.4
*END

*D_NET *404 0.00225022

*CONN
*I *723:B I *C 88.305 52.635 *L 0.0028 *D NOR2X1
*I *765:AN I *C 88.015 54.955 *L 0.00174 *D NOR2BXL
*I *729:Y O *C 86.855 65.105 *L 0 *D AOI21X1

*CAP
1 *404:2 2.02476e-05
2 *404:3 2.02476e-05
3 *404:4 0.000218528
4 *404:5 0.000218528
5 *404:6 4.04951e-05
6 *404:7 0.000101238
7 *404:8 4.37057e-05
8 *404:9 6.07427e-05
9 *404:10 4.37057e-05
10 *404:11 0.000721143
11 *404:13 0.000721143
12 *404:14 2.02476e-05
13 *404:15 2.02476e-05

*RES
1 *404:16 *729:Y 1.4
2 *404:15 *404:16 1.4
3 *404:14 *404:15 0.124289
4 *404:13 *404:14 1.4
5 *404:11 *404:13 4.10153
6 *404:10 *765:AN 1.4
7 *404:9 *404:11 1.4
8 *404:8 *404:10 0.248578
9 *404:7 *404:9 0.372866
10 *404:7 *404:8 1.4
11 *404:6 *404:7 0.248578
12 *404:5 *404:6 1.4
13 *404:4 *404:5 1.24289
14 *404:3 *404:4 1.4
15 *404:2 *404:3 0.124289
16 *404:1 *404:2 1.4
17 *723:B *404:1 1.4
*END

*D_NET *405 0.00111319

*CONN
*I *771:B0 I *C 102.515 39.005 *L 0.0028 *D OAI21X1
*I *728:Y O *C 110.635 38.715 *L 0 *D NAND2XL

*CAP
1 *405:1 2.21988e-05
2 *405:2 2.21988e-05
3 *405:3 0.000534397
4 *405:4 0.000534397

*RES
1 *405:5 *728:Y 1.4
2 *405:4 *405:5 1.4
3 *405:3 *405:4 3.47997
4 *405:2 *405:3 1.4
5 *405:1 *405:2 0.124283
6 *771:B0 *405:1 1.4
*END

*D_NET *406 0.000501463

*CONN
*I *712:C0 I *C 92.075 33.785 *L 0.00282 *D OAI221X1
*I *726:Y O *C 93.815 32.045 *L 0 *D AOI31X1

*CAP
1 *406:1 0.000110994
2 *406:2 0.000110994
3 *406:3 0.000117539
4 *406:4 0.000117539
5 *406:5 2.21988e-05
6 *406:6 2.21988e-05

*RES
1 *406:6 *726:Y 1.4
2 *406:5 *406:6 0.124283
3 *406:4 *406:5 1.4
4 *406:3 *406:4 0.745733
5 *406:2 *406:3 1.4
6 *406:1 *406:2 0.621413
7 *712:C0 *406:1 1.4
*END

*D_NET *407 0.000266385

*CONN
*I *721:B0 I *C 98.165 33.785 *L 0.00166 *D AOI21XL
*I *725:Y O *C 98.165 32.045 *L 0 *D OAI31X1

*CAP
1 *407:1 0.000133193
2 *407:2 0.000133193

*RES
1 *407:2 *725:Y 1.4
2 *407:1 *407:2 0.745696
3 *721:B0 *407:1 1.4
*END

*D_NET *408 0.00139729

*CONN
*I *709:B0 I *C 96.715 47.125 *L 0.00273 *D OAI2BB1X1
*I *724:A I *C 94.395 44.225 *L 0.00273 *D INVX1
*I *727:Y O *C 96.715 41.615 *L 0 *D NAND2X1

*CAP
1 *408:2 3.91796e-05
2 *408:3 3.91796e-05
3 *408:4 0.000199789
4 *408:5 0.000199789
5 *408:6 1.95898e-05
6 *408:7 0.000195898
7 *408:8 0.000221988
8 *408:9 0.000176308
9 *408:10 0.000221988
10 *408:11 2.21988e-05
11 *408:12 1.95898e-05
12 *408:13 2.21988e-05
13 *408:14 1.95898e-05

*RES
1 *408:16 *727:Y 1.4
2 *408:14 *408:16 1.4
3 *408:13 *724:A 1.4
4 *408:12 *408:14 0.124289
5 *408:11 *408:13 0.124283
6 *408:10 *408:12 1.4
7 *408:9 *408:11 1.4
8 *408:8 *408:10 1.24283
9 *408:7 *408:9 1.1186
10 *408:7 *408:8 1.4
11 *408:6 *408:7 0.124289
12 *408:5 *408:6 1.4
13 *408:4 *408:5 1.11854
14 *408:3 *408:4 1.4
15 *408:2 *408:3 0.248578
16 *408:1 *408:2 1.4
17 *709:B0 *408:1 1.4
*END

*D_NET *409 0.000691301

*CONN
*I *706:A2 I *C 92.365 47.125 *L 0.00281 *D OAI32X1
*I *724:Y O *C 94.0225 44.225 *L 0 *D INVX1

*CAP
1 *409:1 0.000221988
2 *409:2 0.000221988
3 *409:3 0.000117539
4 *409:4 0.000117539
5 *409:5 6.1238e-06
6 *409:6 6.1238e-06

*RES
1 *409:6 *724:Y 1.4
2 *409:5 *409:6 0.0342849
3 *409:4 *409:5 1.4
4 *409:3 *409:4 0.745733
5 *409:2 *409:3 1.4
6 *409:1 *409:2 1.24283
7 *706:A2 *409:1 1.4
*END

*D_NET *410 0.000671271

*CONN
*I *697:A1 I *C 90.335 36.975 *L 0.00279 *D AOI211X1
*I *722:Y O *C 94.975 36.685 *L 0 *D AOI32X1

*CAP
1 *410:1 2.21988e-05
2 *410:2 2.21988e-05
3 *410:3 0.000313437
4 *410:4 0.000313437

*RES
1 *410:5 *722:Y 1.4
2 *410:4 *410:5 1.4
3 *410:3 *410:4 1.98862
4 *410:2 *410:3 1.4
5 *410:1 *410:2 0.124283
6 *697:A1 *410:1 1.4
*END

*D_NET *411 0.00162151

*CONN
*I *771:A1 I *C 103.095 39.295 *L 0.00274 *D OAI21X1
*I *721:Y O *C 97.985 33.42 *L 0 *D AOI21XL

*CAP
1 *411:2 0.000352616
2 *411:3 0.000352616
3 *411:4 0.000449717
4 *411:5 0.000458137
5 *411:6 8.42023e-06

*RES
1 *411:6 *721:Y 1.4
2 *411:5 *411:6 0.0471417
3 *411:4 *411:5 2.5178
4 *411:3 *411:4 1.4
5 *411:2 *411:3 2.2372
6 *411:1 *411:2 1.4
7 *771:A1 *411:1 1.4
*END

*D_NET *412 0.000347459

*CONN
*I *771:A0 I *C 103.385 39.005 *L 0.00271 *D OAI21X1
*I *720:Y O *C 105.705 38.715 *L 0 *D OAI21X1

*CAP
1 *412:2 0.000153764
2 *412:3 0.000153764
3 *412:4 1.99657e-05
4 *412:5 1.99657e-05

*RES
1 *412:5 *720:Y 1.4
2 *412:4 *412:5 0.124283
3 *412:3 *412:4 1.4
4 *412:2 *412:3 0.994285
5 *412:1 *412:2 1.4
6 *771:A0 *412:1 1.4
*END

*D_NET *413 0.00167956

*CONN
*I *719:A I *C 83.085 47.415 *L 0.00273 *D INVX1
*I *696:B0 I *C 85.985 47.125 *L 0.00277 *D AOI21X1
*I *723:Y O *C 88.305 53.215 *L 0 *D NOR2X1

*CAP
1 *413:1 2.21988e-05
2 *413:2 2.21988e-05
3 *413:3 0.000195898
4 *413:4 0.000352616
5 *413:5 0.000156718
6 *413:7 0.000464964
7 *413:9 0.000464964

*RES
1 *413:9 *723:Y 1.4
2 *413:7 *413:9 2.60996
3 *413:6 *696:B0 1.4
4 *413:5 *413:7 1.4
5 *413:4 *413:6 1.4
6 *413:4 *413:5 0.99431
7 *413:3 *413:4 1.24289
8 *413:2 *413:3 1.4
9 *413:1 *413:2 0.124283
10 *719:A *413:1 1.4
*END

*D_NET *414 0.0011568

*CONN
*I *694:A1 I *C 83.085 54.665 *L 0.00269 *D AOI31X1
*I *719:Y O *C 82.7125 47.415 *L 0 *D INVX1

*CAP
1 *414:2 2.02476e-05
2 *414:3 2.02476e-05
3 *414:4 0.000552029
4 *414:5 0.000558153
5 *414:6 6.1238e-06

*RES
1 *414:6 *719:Y 1.4
2 *414:5 *414:6 0.0342849
3 *414:4 *414:5 3.10712
4 *414:3 *414:4 1.4
5 *414:2 *414:3 0.124289
6 *414:1 *414:2 1.4
7 *694:A1 *414:1 1.4
*END

*D_NET *415 0.00115634

*CONN
*I *714:B0 I *C 97.005 62.785 *L 0.00277 *D AOI21X1
*I *716:Y O *C 103.095 64.815 *L 0 *D NOR4X1

*CAP
1 *415:2 2.02476e-05
2 *415:3 2.02476e-05
3 *415:4 0.00015297
4 *415:5 0.00015297
5 *415:6 0.000404951
6 *415:7 0.000404951

*RES
1 *415:8 *716:Y 1.4
2 *415:7 *415:8 1.4
3 *415:6 *415:7 2.48577
4 *415:5 *415:6 1.4
5 *415:4 *415:5 0.870021
6 *415:3 *415:4 1.4
7 *415:2 *415:3 0.124289
8 *415:1 *415:2 1.4
9 *714:B0 *415:1 1.4
*END

*D_NET *416 0.000564963

*CONN
*I *707:B I *C 94.395 65.105 *L 0.00284 *D NAND2BX1
*I *715:Y O *C 94.105 68.585 *L 0 *D NAND4XL

*CAP
1 *416:2 2.02476e-05
2 *416:3 2.02476e-05
3 *416:4 0.000262234
4 *416:5 0.000262234

*RES
1 *416:5 *715:Y 1.4
2 *416:4 *416:5 1.49147
3 *416:3 *416:4 1.4
4 *416:2 *416:3 0.124289
5 *416:1 *416:2 1.4
6 *707:B *416:1 1.4
*END

*D_NET *417 0.00136005

*CONN
*I *713:B0 I *C 87.725 57.565 *L 0.00277 *D AOI21X1
*I *703:A1 I *C 85.115 60.175 *L 0.00274 *D OAI21X1
*I *718:Y O *C 88.015 63.365 *L 0 *D NOR3X1

*CAP
1 *417:2 2.02476e-05
2 *417:3 2.02476e-05
3 *417:4 0.000196675
4 *417:5 0.000196675
5 *417:6 2.02476e-05
6 *417:7 0.000202476
7 *417:8 0.000240381
8 *417:9 0.000182228
9 *417:10 0.000240381
10 *417:12 2.02476e-05
11 *417:14 2.02476e-05

*RES
1 *417:15 *718:Y 1.4
2 *417:14 *417:15 1.4
3 *417:12 *417:14 0.124289
4 *417:11 *703:A1 1.4
5 *417:10 *417:12 1.4
6 *417:9 *417:11 1.4
7 *417:8 *417:10 1.36718
8 *417:7 *417:9 1.1186
9 *417:7 *417:8 1.4
10 *417:6 *417:7 0.124289
11 *417:5 *417:6 1.4
12 *417:4 *417:5 1.1186
13 *417:3 *417:4 1.4
14 *417:2 *417:3 0.124289
15 *417:1 *417:2 1.4
16 *713:B0 *417:1 1.4
*END

*D_NET *418 0.000803341

*CONN
*I *710:B I *C 88.305 44.515 *L 0.00167 *D NAND2XL
*I *711:B I *C 88.595 42.195 *L 0.0028 *D NOR2X1
*I *717:Y O *C 90.635 42.195 *L 0 *D NOR2BX1

*CAP
1 *418:1 0.000199789
2 *418:2 0.000199789
3 *418:3 1.95898e-05
4 *418:4 0.000156718
5 *418:5 0.000137129
6 *418:6 2.21988e-05
7 *418:7 2.21988e-05
8 *418:8 2.21988e-05
9 *418:9 2.29643e-05
10 *418:11 7.65475e-07

*RES
1 *418:11 *717:Y 1.4
2 *418:9 *418:11 0.00428561
3 *418:8 *711:B 1.4
4 *418:7 *418:9 0.124283
5 *418:6 *418:8 0.124283
6 *418:5 *418:7 1.4
7 *418:4 *418:6 1.4
8 *418:4 *418:5 0.870021
9 *418:3 *418:4 0.124289
10 *418:2 *418:3 1.4
11 *418:1 *418:2 1.11854
12 *710:B *418:1 1.4
*END

*D_NET *419 0.000561795

*CONN
*I *697:A0 I *C 90.68 36.9875 *L 0.00263 *D AOI211X1
*I *712:Y O *C 92.075 34.655 *L 0 *D OAI221X1

*CAP
1 *419:1 4.21011e-06
2 *419:2 5.35833e-06
3 *419:3 1.14821e-06
4 *419:4 3.91796e-05
5 *419:5 3.91796e-05
6 *419:6 0.00017759
7 *419:7 0.00017759
8 *419:8 5.87694e-05
9 *419:9 5.87694e-05

*RES
1 *419:10 *712:Y 1.4
2 *419:9 *419:10 1.4
3 *419:8 *419:9 0.372866
4 *419:7 *419:8 1.4
5 *419:6 *419:7 0.994261
6 *419:5 *419:6 1.4
7 *419:4 *419:5 0.248578
8 *419:3 *419:4 1.4
9 *419:2 *419:3 0.00642841
10 *419:1 *419:2 0.0235709
11 *697:A0 *419:1 1.4
*END

*D_NET *420 0.00275793

*CONN
*I *773:C I *C 92.075 52.635 *L 0.00179 *D NOR3BXL
*I *698:A1 I *C 94.975 52.635 *L 0.00278 *D AOI21X1
*I *714:Y O *C 97.585 63.075 *L 0 *D AOI21X1
*I *701:A1 I *C 99.035 52.345 *L 0.00274 *D OAI21X1

*CAP
1 *420:1 2.18528e-05
2 *420:2 2.18528e-05
3 *420:3 0.000202476
4 *420:4 0.000384704
5 *420:5 0.000182228
6 *420:6 2.18528e-05
7 *420:7 0.00083058
8 *420:8 2.18528e-05
9 *420:9 0.000808555
10 *420:10 2.20258e-05
11 *420:13 9.79489e-05
12 *420:14 9.79489e-05
13 *420:15 2.20258e-05
14 *420:16 2.20258e-05

*RES
1 *420:16 *701:A1 1.4
2 *420:15 *420:16 0.124286
3 *420:14 *420:15 1.4
4 *420:13 *420:14 0.621444
5 *420:10 *420:13 1.4
6 *420:9 *714:Y 1.4
7 *420:8 *698:A1 1.4
8 *420:7 *420:10 0.124286
9 *420:7 *420:9 4.59868
10 *420:6 *420:8 0.124289
11 *420:5 *420:7 1.4
12 *420:4 *420:6 1.4
13 *420:4 *420:5 1.1186
14 *420:3 *420:4 1.24289
15 *420:2 *420:3 1.4
16 *420:1 *420:2 0.124289
17 *773:C *420:1 1.4
*END

*D_NET *421 0.00298599

*CONN
*I *708:A I *C 85.985 44.225 *L 0.00273 *D INVX1
*I *704:B I *C 86.855 39.295 *L 0.00171 *D NOR2XL
*I *713:Y O *C 87.145 57.855 *L 0 *D AOI21X1

*CAP
1 *421:2 5.87694e-05
2 *421:3 5.87694e-05
3 *421:4 0.00141398
4 *421:5 0.0010366
5 *421:6 0.000377379
6 *421:7 2.02476e-05
7 *421:9 2.02476e-05

*RES
1 *421:10 *713:Y 1.4
2 *421:9 *421:10 1.4
3 *421:7 *421:9 0.124289
4 *421:6 *704:B 1.4
5 *421:5 *421:7 1.4
6 *421:4 *421:6 2.11281
7 *421:4 *421:5 5.8414
8 *421:3 *421:4 1.4
9 *421:2 *421:3 0.372866
10 *421:1 *421:2 1.4
11 *708:A *421:1 1.4
*END

*D_NET *422 0.000608566

*CONN
*I *702:A1 I *C 85.405 41.615 *L 0.00166 *D OAI21XL
*I *711:Y O *C 88.595 42.775 *L 0 *D NOR2X1

*CAP
1 *422:1 6.65963e-05
2 *422:2 6.65963e-05
3 *422:3 0.000215488
4 *422:4 0.000215488
5 *422:5 2.21988e-05
6 *422:6 2.21988e-05

*RES
1 *422:6 *711:Y 1.4
2 *422:5 *422:6 0.124283
3 *422:4 *422:5 1.4
4 *422:3 *422:4 1.36718
5 *422:2 *422:3 1.4
6 *422:1 *422:2 0.372848
7 *702:A1 *422:1 1.4
*END

*D_NET *423 0.000780938

*CONN
*I *702:B0 I *C 84.825 41.905 *L 0.00169 *D OAI21XL
*I *710:Y O *C 88.305 43.935 *L 0 *D NAND2XL

*CAP
1 *423:1 0.000155391
2 *423:2 0.000155391
3 *423:3 0.000235077
4 *423:4 0.000235077

*RES
1 *423:5 *710:Y 1.4
2 *423:4 *423:5 1.4
3 *423:3 *423:4 1.49147
4 *423:2 *423:3 1.4
5 *423:1 *423:2 0.869979
6 *702:B0 *423:1 1.4
*END

*D_NET *424 0.000812246

*CONN
*I *705:A I *C 99.325 44.225 *L 0.00162 *D NOR2XL
*I *709:Y O *C 97.585 47.415 *L 0 *D OAI2BB1X1

*CAP
1 *424:2 3.91796e-05
2 *424:3 3.91796e-05
3 *424:4 0.000266385
4 *424:5 0.000266385
5 *424:6 7.83592e-05
6 *424:7 7.83592e-05
7 *424:8 2.21988e-05
8 *424:9 2.21988e-05

*RES
1 *424:9 *709:Y 1.4
2 *424:8 *424:9 0.124283
3 *424:7 *424:8 1.4
4 *424:6 *424:7 0.497155
5 *424:5 *424:6 1.4
6 *424:4 *424:5 1.49139
7 *424:3 *424:4 1.4
8 *424:2 *424:3 0.248578
9 *424:1 *424:2 1.4
10 *705:A *424:1 1.4
*END

*D_NET *425 0.000367428

*CONN
*I *702:A0 I *C 85.695 41.905 *L 0.00164 *D OAI21XL
*I *708:Y O *C 85.6125 44.225 *L 0 *D INVX1

*CAP
1 *425:1 0.00017759
2 *425:2 0.000183714
3 *425:3 6.1238e-06

*RES
1 *425:3 *708:Y 1.4
2 *425:2 *425:3 0.0342849
3 *425:1 *425:2 0.994261
4 *702:A0 *425:1 1.4
*END

*D_NET *426 0.000812246

*CONN
*I *695:A0 I *C 93.815 49.445 *L 0.00265 *D AOI21X1
*I *706:Y O *C 92.075 46.255 *L 0 *D OAI32X1

*CAP
1 *426:1 2.21988e-05
2 *426:2 2.21988e-05
3 *426:3 0.000117539
4 *426:4 0.000117539
5 *426:5 0.000266385
6 *426:6 0.000266385

*RES
1 *426:6 *706:Y 1.4
2 *426:5 *426:6 1.49139
3 *426:4 *426:5 1.4
4 *426:3 *426:4 0.745733
5 *426:2 *426:3 1.4
6 *426:1 *426:2 0.124283
7 *695:A0 *426:1 1.4
*END

*D_NET *427 0.000950656

*CONN
*I *693:A0 I *C 98.455 49.735 *L 0.00264 *D AOI22X1
*I *705:Y O *C 99.905 44.805 *L 0 *D NOR2XL

*CAP
1 *427:2 3.91796e-05
2 *427:3 3.91796e-05
3 *427:4 0.000377379
4 *427:5 0.000377379
5 *427:6 5.87694e-05
6 *427:7 5.87694e-05

*RES
1 *427:8 *705:Y 1.4
2 *427:7 *427:8 1.4
3 *427:6 *427:7 0.372866
4 *427:5 *427:6 1.4
5 *427:4 *427:5 2.11281
6 *427:3 *427:4 1.4
7 *427:2 *427:3 0.248578
8 *427:1 *427:2 1.4
9 *693:A0 *427:1 1.4
*END

*D_NET *428 0.0028057

*CONN
*I *693:B0 I *C 97.295 49.445 *L 0.00265 *D AOI22X1
*I *707:Y O *C 94.395 64.525 *L 0 *D NAND2BX1
*I *699:B I *C 93.525 54.955 *L 0.00171 *D NOR2XL

*CAP
1 *428:1 0.000331079
2 *428:2 0.000331079
3 *428:3 0.000202476
4 *428:4 0.000202476
5 *428:5 8.74113e-05
6 *428:6 0.000808555
7 *428:7 0.000721143
8 *428:8 6.07427e-05
9 *428:10 6.07427e-05

*RES
1 *428:11 *699:B 1.4
2 *428:10 *428:11 1.4
3 *428:8 *428:10 0.372866
4 *428:7 *707:Y 1.4
5 *428:6 *428:8 1.4
6 *428:6 *428:7 4.10153
7 *428:5 *428:6 0.497155
8 *428:4 *428:5 1.4
9 *428:3 *428:4 1.24289
10 *428:2 *428:3 1.4
11 *428:1 *428:2 1.86427
12 *693:B0 *428:1 1.4
*END

*D_NET *429 0.000791374

*CONN
*I *697:C0 I *C 89.465 36.975 *L 0.00281 *D AOI211X1
*I *704:Y O *C 86.565 39.585 *L 0 *D NOR2XL

*CAP
1 *429:2 0.000195898
2 *429:3 0.000195898
3 *429:4 0.000199789
4 *429:5 0.000199789

*RES
1 *429:5 *704:Y 1.4
2 *429:4 *429:5 1.11854
3 *429:3 *429:4 1.4
4 *429:2 *429:3 1.24289
5 *429:1 *429:2 1.4
6 *697:C0 *429:1 1.4
*END

*D_NET *430 0.000441411

*CONN
*I *692:A I *C 81.925 41.905 *L 0.00157 *D NAND2XL
*I *702:Y O *C 84.535 42.485 *L 0 *D OAI21XL

*CAP
1 *430:1 2.21988e-05
2 *430:2 2.21988e-05
3 *430:3 0.000176308
4 *430:4 0.000176308
5 *430:5 2.21988e-05
6 *430:6 2.21988e-05

*RES
1 *430:6 *702:Y 1.4
2 *430:5 *430:6 0.124283
3 *430:4 *430:5 1.4
4 *430:3 *430:4 1.1186
5 *430:2 *430:3 1.4
6 *430:1 *430:2 0.124283
7 *692:A *430:1 1.4
*END

*D_NET *431 0.0006094

*CONN
*I *693:B1 I *C 97.585 49.445 *L 0.00283 *D AOI22X1
*I *701:Y O *C 98.165 52.925 *L 0 *D OAI21X1

*CAP
1 *431:1 2.21988e-05
2 *431:2 2.21988e-05
3 *431:3 3.91796e-05
4 *431:4 3.91796e-05
5 *431:5 0.000243322
6 *431:6 0.000243322

*RES
1 *431:6 *701:Y 1.4
2 *431:5 *431:6 1.36712
3 *431:4 *431:5 1.4
4 *431:3 *431:4 0.248578
5 *431:2 *431:3 1.4
6 *431:1 *431:2 0.124283
7 *693:B1 *431:1 1.4
*END

*D_NET *432 0.00206083

*CONN
*I *696:A1 I *C 86.275 47.415 *L 0.00278 *D AOI21X1
*I *703:Y O *C 85.985 59.595 *L 0 *D OAI21X1
*I *700:A I *C 84.815 57.6275 *L 0.00163 *D INVXL

*CAP
1 *432:1 0.000770557
2 *432:2 0.000770557
3 *432:3 2.02476e-05
4 *432:4 0.000101238
5 *432:5 0.00015297
6 *432:6 8.09903e-05
7 *432:7 0.00015297
8 *432:8 4.89805e-06
9 *432:10 5.65159e-06
10 *432:11 7.53546e-07

*RES
1 *432:11 *700:A 1.4
2 *432:10 *432:11 0.00428582
3 *432:8 *432:10 0.0278578
4 *432:7 *703:Y 1.4
5 *432:6 *432:8 1.4
6 *432:5 *432:7 0.870021
7 *432:4 *432:6 0.497155
8 *432:4 *432:5 1.4
9 *432:3 *432:4 0.124289
10 *432:2 *432:3 1.4
11 *432:1 *432:2 4.35001
12 *696:A1 *432:1 1.4
*END

*D_NET *433 0.000570599

*CONN
*I *694:A2 I *C 83.665 54.665 *L 0.00276 *D AOI31X1
*I *700:Y O *C 84.4525 57.565 *L 0 *D INVXL

*CAP
1 *433:2 2.02476e-05
2 *433:3 2.02476e-05
3 *433:4 0.000218528
4 *433:5 0.000218528
5 *433:6 4.04951e-05
6 *433:7 4.04951e-05
7 *433:8 6.02837e-06
8 *433:9 6.02837e-06

*RES
1 *433:9 *700:Y 1.4
2 *433:8 *433:9 0.0342866
3 *433:7 *433:8 1.4
4 *433:6 *433:7 0.248578
5 *433:5 *433:6 1.4
6 *433:4 *433:5 1.24289
7 *433:3 *433:4 1.4
8 *433:2 *433:3 0.124289
9 *433:1 *433:2 1.4
10 *694:A2 *433:1 1.4
*END

*D_NET *434 0.000558542

*CONN
*I *698:B0 I *C 94.685 52.345 *L 0.00277 *D AOI21X1
*I *699:Y O *C 93.815 55.245 *L 0 *D NOR2XL

*CAP
1 *434:2 6.07427e-05
2 *434:3 6.07427e-05
3 *434:4 0.000218528
4 *434:5 0.000218528

*RES
1 *434:5 *699:Y 1.4
2 *434:4 *434:5 1.24289
3 *434:3 *434:4 1.4
4 *434:2 *434:3 0.372866
5 *434:1 *434:2 1.4
6 *698:B0 *434:1 1.4
*END

*D_NET *435 0.0011991

*CONN
*I *693:A1 I *C 98.165 49.155 *L 0.0028 *D AOI22X1
*I *695:A1 I *C 93.525 49.445 *L 0.00278 *D AOI21X1
*I *698:Y O *C 94.105 52.635 *L 0 *D AOI21X1

*CAP
1 *435:1 2.21988e-05
2 *435:2 2.21988e-05
3 *435:3 0.000254667
4 *435:4 0.000313437
5 *435:5 0.000243668
6 *435:6 5.87694e-05
7 *435:7 0.000243668
8 *435:9 2.02476e-05
9 *435:11 2.02476e-05

*RES
1 *435:12 *698:Y 1.4
2 *435:11 *435:12 1.4
3 *435:9 *435:11 0.124289
4 *435:8 *695:A1 1.4
5 *435:7 *435:9 1.4
6 *435:6 *435:8 1.4
7 *435:5 *435:7 1.36712
8 *435:4 *435:6 0.372866
9 *435:4 *435:5 1.4
10 *435:3 *435:4 1.61575
11 *435:2 *435:3 1.4
12 *435:1 *435:2 0.124283
13 *693:A1 *435:1 1.4
*END

*D_NET *436 0.00113355

*CONN
*I *691:A I *C 83.955 39.295 *L 0.00157 *D NAND2XL
*I *697:Y O *C 90.045 37.265 *L 0 *D AOI211X1

*CAP
1 *436:2 0.000352616
2 *436:3 0.000352616
3 *436:4 0.000155391
4 *436:5 0.000155391
5 *436:6 5.87694e-05
6 *436:7 5.87694e-05

*RES
1 *436:8 *697:Y 1.4
2 *436:7 *436:8 1.4
3 *436:6 *436:7 0.372866
4 *436:5 *436:6 1.4
5 *436:4 *436:5 0.869979
6 *436:3 *436:4 1.4
7 *436:2 *436:3 2.2372
8 *436:1 *436:2 1.4
9 *691:A *436:1 1.4
*END

*D_NET *437 0.00187

*CONN
*I *691:B I *C 83.375 39.295 *L 0.00167 *D NAND2XL
*I *692:B I *C 81.345 41.905 *L 0.00167 *D NAND2XL
*I *696:Y O *C 85.405 47.415 *L 0 *D AOI21X1

*CAP
1 *437:2 1.95898e-05
2 *437:3 1.95898e-05
3 *437:4 0.000199789
4 *437:5 0.000199789
5 *437:6 1.95898e-05
6 *437:7 0.000156718
7 *437:8 0.000421777
8 *437:9 0.000137129
9 *437:10 0.000421777
10 *437:12 0.000137129
11 *437:14 0.000137129

*RES
1 *437:15 *696:Y 1.4
2 *437:14 *437:15 1.4
3 *437:12 *437:14 0.870021
4 *437:11 *692:B 1.4
5 *437:10 *437:12 1.4
6 *437:9 *437:11 1.4
7 *437:8 *437:10 2.36137
8 *437:7 *437:9 0.870021
9 *437:7 *437:8 1.4
10 *437:6 *437:7 0.124289
11 *437:5 *437:6 1.4
12 *437:4 *437:5 1.11854
13 *437:3 *437:4 1.4
14 *437:2 *437:3 0.124289
15 *437:1 *437:2 1.4
16 *691:B *437:1 1.4
*END

*D_NET *438 0.000475373

*CONN
*I *690:B I *C 89.465 49.735 *L 0.00534 *D NAND2X2
*I *695:Y O *C 92.655 49.445 *L 0 *D AOI21X1

*CAP
1 *438:1 2.21988e-05
2 *438:2 2.21988e-05
3 *438:3 0.000215488
4 *438:4 0.000215488

*RES
1 *438:5 *695:Y 1.4
2 *438:4 *438:5 1.4
3 *438:3 *438:4 1.36718
4 *438:2 *438:3 1.4
5 *438:1 *438:2 0.124283
6 *690:B *438:1 1.4
*END

*D_NET *439 0.00183088

*CONN
*I *688:A I *C 82.215 44.225 *L 0.00264 *D NAND3X1
*I *694:Y O *C 83.665 54.375 *L 0 *D AOI31X1

*CAP
1 *439:2 1.95898e-05
2 *439:3 1.95898e-05
3 *439:4 0.000774363
4 *439:5 0.000774363
5 *439:6 0.000121485
6 *439:7 0.000121485

*RES
1 *439:8 *694:Y 1.4
2 *439:7 *439:8 1.4
3 *439:6 *439:7 0.745732
4 *439:5 *439:6 1.4
5 *439:4 *439:5 4.34994
6 *439:3 *439:4 1.4
7 *439:2 *439:3 0.124289
8 *439:1 *439:2 1.4
9 *688:A *439:1 1.4
*END

*D_NET *440 0.00125896

*CONN
*I *690:A I *C 88.885 49.445 *L 0.00547 *D NAND2X2
*I *693:Y O *C 97.875 49.155 *L 0 *D AOI22X1

*CAP
1 *440:1 2.21988e-05
2 *440:2 2.21988e-05
3 *440:3 0.000607283
4 *440:4 0.000607283

*RES
1 *440:5 *693:Y 1.4
2 *440:4 *440:5 1.4
3 *440:3 *440:4 3.85295
4 *440:2 *440:3 1.4
5 *440:1 *440:2 0.124283
6 *690:A *440:1 1.4
*END

*D_NET *441 0.000457065

*CONN
*I *688:B I *C 81.925 43.935 *L 0.00285 *D NAND3X1
*I *692:Y O *C 81.345 42.485 *L 0 *D NAND2XL

*CAP
1 *441:2 7.83592e-05
2 *441:3 7.83592e-05
3 *441:4 0.000110994
4 *441:5 0.000110994
5 *441:6 3.91796e-05
6 *441:7 3.91796e-05

*RES
1 *441:8 *692:Y 1.4
2 *441:7 *441:8 1.4
3 *441:6 *441:7 0.248578
4 *441:5 *441:6 1.4
5 *441:4 *441:5 0.621413
6 *441:3 *441:4 1.4
7 *441:2 *441:3 0.497155
8 *441:1 *441:2 1.4
9 *688:B *441:1 1.4
*END

*D_NET *442 0.00107863

*CONN
*I *688:C I *C 81.635 44.225 *L 0.00285 *D NAND3X1
*I *691:Y O *C 83.375 38.715 *L 0 *D NAND2XL

*CAP
1 *442:1 0.000421777
2 *442:2 0.000421777
3 *442:3 0.000117539
4 *442:4 0.000117539

*RES
1 *442:5 *691:Y 1.4
2 *442:4 *442:5 1.4
3 *442:3 *442:4 0.745733
4 *442:2 *442:3 1.4
5 *442:1 *442:2 2.36137
6 *688:C *442:1 1.4
*END

*D_NET *443 0.0016582

*CONN
*I *689:A I *C 79.895 49.445 *L 0.00273 *D INVX1
*I *687:B I *C 82.505 52.345 *L 0.00562 *D NAND3X2
*I *690:Y O *C 88.885 50.025 *L 0 *D NAND2X2

*CAP
1 *443:2 0.000176308
2 *443:3 0.000176308
3 *443:4 4.43976e-05
4 *443:5 0.000221815
5 *443:6 0.000430975
6 *443:7 0.000177417
7 *443:8 0.000430975

*RES
1 *443:10 *690:Y 1.4
2 *443:8 *443:10 1.4
3 *443:7 *687:B 1.4
4 *443:6 *443:8 2.73435
5 *443:5 *443:7 0.994264
6 *443:5 *443:6 1.4
7 *443:4 *443:5 0.248565
8 *443:3 *443:4 1.4
9 *443:2 *443:3 1.1186
10 *443:1 *443:2 1.4
11 *689:A *443:1 1.4
*END

*D_NET *444 0.000459609

*CONN
*I *686:A I *C 76.705 49.735 *L 0.00157 *D NAND2XL
*I *689:Y O *C 79.5225 49.445 *L 0 *D INVX1

*CAP
1 *444:1 2.26116e-05
2 *444:2 2.26116e-05
3 *444:3 0.000201069
4 *444:4 0.000201069
5 *444:5 6.1238e-06
6 *444:6 6.1238e-06

*RES
1 *444:6 *689:Y 1.4
2 *444:5 *444:6 0.0342849
3 *444:4 *444:5 1.4
4 *444:3 *444:4 1.24286
5 *444:2 *444:3 1.4
6 *444:1 *444:2 0.124289
7 *686:A *444:1 1.4
*END

*D_NET *445 0.00258179

*CONN
*I *686:B I *C 76.125 49.735 *L 0.00167 *D NAND2XL
*I *684:B0 I *C 77.865 52.635 *L 0.0028 *D OAI21X1
*I *688:Y O *C 81.345 44.805 *L 0 *D NAND3X1
*I *687:C I *C 81.925 52.345 *L 0.00534 *D NAND3X2

*CAP
1 *445:1 0.000244877
2 *445:2 0.000244877
3 *445:3 0.000120922
4 *445:4 0.000363752
5 *445:5 0.00024283
6 *445:6 2.10714e-05
7 *445:7 4.37057e-05
8 *445:8 2.10714e-05
9 *445:9 0.000620701
10 *445:11 4.04951e-05
11 *445:12 0.000576995
12 *445:13 4.04951e-05

*RES
1 *445:15 *687:C 1.4
2 *445:13 *445:15 1.4
3 *445:12 *688:Y 1.4
4 *445:11 *445:13 0.248578
5 *445:9 *445:12 3.23135
6 *445:9 *445:11 1.4
7 *445:8 *684:B0 1.4
8 *445:7 *445:9 0.248578
9 *445:6 *445:8 0.124283
10 *445:5 *445:7 1.4
11 *445:4 *445:6 1.4
12 *445:4 *445:5 1.49146
13 *445:3 *445:4 0.745699
14 *445:2 *445:3 1.4
15 *445:1 *445:2 1.36716
16 *686:B *445:1 1.4
*END

*D_NET *446 0.00109401

*CONN
*I *685:A1 I *C 73.805 52.345 *L 0.00274 *D OAI21X1
*I *684:A1 I *C 78.445 52.345 *L 0.00274 *D OAI21X1
*I *687:Y O *C 81.345 52.055 *L 0 *D NAND3X2

*CAP
1 *446:2 0.000322505
2 *446:3 0.000524981
3 *446:4 0.000202476
4 *446:6 2.20258e-05
5 *446:8 2.20258e-05

*RES
1 *446:8 *687:Y 1.4
2 *446:6 *446:8 0.124286
3 *446:5 *684:A1 1.4
4 *446:4 *446:6 1.4
5 *446:3 *446:5 1.4
6 *446:3 *446:4 1.24289
7 *446:2 *446:3 1.98853
8 *446:1 *446:2 1.4
9 *685:A1 *446:1 1.4
*END

*D_NET *447 0.000784417

*CONN
*I *685:B0 I *C 74.385 52.635 *L 0.0028 *D OAI21X1
*I *686:Y O *C 76.125 49.155 *L 0 *D NAND2XL

*CAP
1 *447:1 0.000269029
2 *447:2 0.000269029
3 *447:3 0.00012318
4 *447:4 0.00012318

*RES
1 *447:5 *686:Y 1.4
2 *447:4 *447:5 1.4
3 *447:3 *447:4 0.745699
4 *447:2 *447:3 1.4
5 *447:1 *447:2 1.49146
6 *685:B0 *447:1 1.4
*END

*D_NET *448 0.00154269

*CONN
*I *682:D I *C 65.395 54.665 *L 0.0017 *D SDFFRXL
*I *685:Y O *C 74.675 52.925 *L 0 *D OAI21X1

*CAP
1 *448:2 0.000644916
2 *448:3 0.000644916
3 *448:4 0.000126428
4 *448:5 0.000126428

*RES
1 *448:5 *685:Y 1.4
2 *448:4 *448:5 0.745698
3 *448:3 *448:4 1.4
4 *448:2 *448:3 3.97706
5 *448:1 *448:2 1.4
6 *682:D *448:1 1.4
*END

*D_NET *449 0.00150977

*CONN
*I *683:D I *C 74.965 57.855 *L 0.0017 *D SDFFRXL
*I *684:Y O *C 77.575 52.925 *L 0 *D OAI21X1

*CAP
1 *449:2 0.000282386
2 *449:3 0.000282386
3 *449:4 0.000371498
4 *449:5 0.000371498
5 *449:6 0.000101003
6 *449:7 0.000101003

*RES
1 *449:8 *684:Y 1.4
2 *449:7 *449:8 1.4
3 *449:6 *449:7 0.62143
4 *449:5 *449:6 1.4
5 *449:4 *449:5 2.11291
6 *449:3 *449:4 1.4
7 *449:2 *449:3 1.73998
8 *449:1 *449:2 1.4
9 *683:D *449:1 1.4
*END

*D_NET *450 0.00132936

*CONN
*I *705:B I *C 99.615 44.515 *L 0.00171 *D NOR2XL
*I *771:Y O *C 102.225 38.715 *L 0 *D OAI21X1

*CAP
1 *450:1 0.000466174
2 *450:2 0.000466174
3 *450:3 0.000176308
4 *450:4 0.000176308
5 *450:5 2.21988e-05
6 *450:6 2.21988e-05

*RES
1 *450:6 *771:Y 1.4
2 *450:5 *450:6 0.124283
3 *450:4 *450:5 1.4
4 *450:3 *450:4 1.1186
5 *450:2 *450:3 1.4
6 *450:1 *450:2 2.60994
7 *705:B *450:1 1.4
*END

*D_NET *451 0.00200346

*CONN
*I *720:A1 I *C 106.575 39.295 *L 0.00274 *D OAI21X1
*I *728:B I *C 110.635 39.295 *L 0.00167 *D NAND2XL
*I *772:Y O *C 111.215 49.445 *L 0 *D XNOR2XL

*CAP
1 *451:2 0.000265065
2 *451:3 0.000283998
3 *451:4 1.89332e-05
4 *451:6 0.000698801
5 *451:8 0.000698801
6 *451:9 1.89332e-05
7 *451:10 1.89332e-05

*RES
1 *451:11 *772:Y 1.4
2 *451:10 *451:11 1.4
3 *451:9 *451:10 0.124283
4 *451:8 *451:9 1.4
5 *451:6 *451:8 4.34989
6 *451:5 *728:B 1.4
7 *451:4 *451:6 1.4
8 *451:3 *451:5 1.4
9 *451:3 *451:4 0.124283
10 *451:2 *451:3 1.73997
11 *451:1 *451:2 1.4
12 *720:A1 *451:1 1.4
*END

*D_NET *452 0.000647888

*CONN
*I *695:B0 I *C 93.235 49.735 *L 0.00277 *D AOI21X1
*I *773:Y O *C 92.365 53.215 *L 0 *D NOR3BXL

*CAP
1 *452:1 2.21988e-05
2 *452:2 2.21988e-05
3 *452:3 5.87694e-05
4 *452:4 5.87694e-05
5 *452:5 0.000242976
6 *452:6 0.000242976

*RES
1 *452:6 *773:Y 1.4
2 *452:5 *452:6 1.36713
3 *452:4 *452:5 1.4
4 *452:3 *452:4 0.372866
5 *452:2 *452:3 1.4
6 *452:1 *452:2 0.124283
7 *695:B0 *452:1 1.4
*END

*D_NET *453 0.00154612

*CONN
*I *808:AN I *C 30.885 73.515 *L 0.00178 *D NAND3BX1
*I *821:SI I *C 28.565 70.615 *L 0.00276 *D SDFFRHQX1
*I *822:Q O *C 33.495 68.585 *L 0 *D SDFFRHQX1

*CAP
1 *453:1 0.000191658
2 *453:2 0.000191658
3 *453:3 2.16526e-05
4 *453:4 0.000173221
5 *453:5 0.000170363
6 *453:6 0.000151568
7 *453:7 0.000170363
8 *453:8 2.12953e-05
9 *453:9 0.000216526
10 *453:10 2.12953e-05
11 *453:11 0.000216526

*RES
1 *453:13 *822:Q 1.4
2 *453:11 *453:13 1.4
3 *453:10 *821:SI 1.4
4 *453:9 *453:11 1.24289
5 *453:8 *453:10 0.124283
6 *453:7 *453:9 1.4
7 *453:6 *453:8 1.4
8 *453:5 *453:7 0.994261
9 *453:4 *453:6 0.870021
10 *453:4 *453:5 1.4
11 *453:3 *453:4 0.124289
12 *453:2 *453:3 1.4
13 *453:1 *453:2 1.11854
14 *808:AN *453:1 1.4
*END

*D_NET *454 0.00106059

*CONN
*I *789:A0 I *C 34.365 91.495 *L 0.00267 *D OAI211X1
*I *833:B I *C 36.395 91.205 *L 0.00284 *D NAND2BX1
*I *834:Y O *C 30.595 90.625 *L 0 *D NAND2BX1

*CAP
1 *454:1 2.29815e-05
2 *454:2 2.29815e-05
3 *454:3 0.000461351
4 *454:4 0.000161473
5 *454:5 0.000299878
6 *454:7 4.59631e-05
7 *454:9 4.59631e-05

*RES
1 *454:9 *834:Y 1.4
2 *454:7 *454:9 0.248578
3 *454:6 *833:B 1.4
4 *454:5 *454:7 1.4
5 *454:4 *454:6 1.4
6 *454:3 *454:5 1.61568
7 *454:3 *454:4 0.869981
8 *454:2 *454:3 1.4
9 *454:1 *454:2 0.124289
10 *789:A0 *454:1 1.4
*END

*D_NET *455 0.000553449

*CONN
*I *789:C0 I *C 33.205 90.915 *L 0.00287 *D OAI211X1
*I *833:Y O *C 36.395 90.625 *L 0 *D NAND2BX1

*CAP
1 *455:2 0.000253743
2 *455:3 0.000253743
3 *455:4 2.29815e-05
4 *455:5 2.29815e-05

*RES
1 *455:5 *833:Y 1.4
2 *455:4 *455:5 0.124289
3 *455:3 *455:4 1.4
4 *455:2 *455:3 1.36711
5 *455:1 *455:2 1.4
6 *789:C0 *455:1 1.4
*END

*D_NET *456 0.00422555

*CONN
*I *811:A0 I *C 54.085 80.765 *L 0.00157 *D OA21XL
*I *814:A I *C 51.185 83.665 *L 0.00157 *D NAND2XL
*I *798:A I *C 44.225 83.955 *L 0.00162 *D NOR2XL
*I *796:A I *C 42.195 81.055 *L 0.0017 *D MXI2XL
*I *784:B0 I *C 48.285 78.445 *L 0.00164 *D OAI222XL
*I *832:Y O *C 42.5675 78.735 *L 0 *D CLKINVX1

*CAP
1 *456:2 0.000126334
2 *456:3 0.000126334
3 *456:4 0.000229383
4 *456:5 0.000229383
5 *456:6 9.12643e-05
6 *456:7 0.000644885
7 *456:8 2.29815e-05
8 *456:9 0.000553621
9 *456:10 2.29815e-05
10 *456:11 0.000229815
11 *456:14 0.000229815
12 *456:15 0.000115338
13 *456:16 0.000161473
14 *456:17 0.000206834
15 *456:18 4.61351e-05
16 *456:19 0.000206834
17 *456:21 0.000461351
18 *456:23 0.000438283
19 *456:24 2.30675e-05
20 *456:26 2.29815e-05
21 *456:28 2.97175e-05
22 *456:29 6.73597e-06

*RES
1 *456:29 *832:Y 1.4
2 *456:28 *456:29 0.0364295
3 *456:26 *456:28 0.124289
4 *456:25 *784:B0 1.4
5 *456:24 *456:26 1.4
6 *456:23 *456:25 1.4
7 *456:21 *456:24 0.124283
8 *456:21 *456:23 2.36138
9 *456:20 *796:A 1.4
10 *456:19 *456:21 1.4
11 *456:18 *456:20 1.4
12 *456:17 *456:19 1.1186
13 *456:16 *456:18 0.248566
14 *456:16 *456:17 1.4
15 *456:15 *456:16 0.621415
16 *456:14 *456:15 1.4
17 *456:11 *456:14 1.24289
18 *456:11 *798:A 1.4
19 *456:10 *814:A 1.4
20 *456:9 *456:11 1.4
21 *456:8 *456:10 0.124289
22 *456:7 *456:9 2.98279
23 *456:7 *456:8 1.4
24 *456:6 *456:7 0.497135
25 *456:5 *456:6 1.4
26 *456:4 *456:5 1.36711
27 *456:3 *456:4 1.4
28 *456:2 *456:3 0.745732
29 *456:1 *456:2 1.4
30 *811:A0 *456:1 1.4
*END

*D_NET *457 0.00119939

*CONN
*I *812:C0 I *C 38.715 78.735 *L 0.00281 *D AOI211X1
*I *831:Y O *C 36.1875 73.515 *L 0 *D INVX1

*CAP
1 *457:1 2.29815e-05
2 *457:2 2.29815e-05
3 *457:3 0.000207608
4 *457:4 0.000207608
5 *457:5 0.000362864
6 *457:6 0.000369106
7 *457:7 6.24174e-06

*RES
1 *457:7 *831:Y 1.4
2 *457:6 *457:7 0.0364277
3 *457:5 *457:6 2.11281
4 *457:4 *457:5 1.4
5 *457:3 *457:4 1.11855
6 *457:2 *457:3 1.4
7 *457:1 *457:2 0.124289
8 *812:C0 *457:1 1.4
*END

*D_NET *458 0.00387542

*CONN
*I *791:B I *C 53.22 93.765 *L 0.00164 *D MXI2XL
*I *780:A I *C 47.705 94.105 *L 0.0017 *D MXI2XL
*I *775:C1 I *C 47.415 91.495 *L 0.00179 *D OAI222XL
*I *779:A1 I *C 44.225 94.105 *L 0.00167 *D OAI31XL
*I *794:A I *C 44.225 88.885 *L 0.00157 *D NAND2XL
*I *830:Y O *C 45.7575 96.425 *L 0 *D CLKINVX1
*I *813:B I *C 42.485 96.425 *L 0.00272 *D NOR3X1

*CAP
1 *458:1 3.59535e-07
2 *458:2 3.95488e-06
3 *458:3 3.59535e-06
4 *458:4 0.000431242
5 *458:5 0.000454309
6 *458:6 2.29815e-05
7 *458:7 2.30675e-05
8 *458:8 2.29815e-05
9 *458:9 4.59631e-05
10 *458:11 0.000183852
11 *458:12 0.000207608
12 *458:13 0.000137889
13 *458:14 0.000253743
14 *458:16 0.000252797
15 *458:17 4.61351e-05
16 *458:18 0.00029876
17 *458:19 0.000413668
18 *458:20 6.92026e-05
19 *458:21 4.59631e-05
20 *458:22 6.89446e-05
21 *458:23 0.000344723
22 *458:24 6.92026e-05
23 *458:25 0.00018454
24 *458:28 6.73597e-06
25 *458:29 0.00018454
26 *458:30 6.73597e-06
27 *458:31 4.59631e-05
28 *458:33 4.59631e-05

*RES
1 *458:33 *813:B 1.4
2 *458:31 *458:33 0.248578
3 *458:30 *830:Y 1.4
4 *458:29 *458:31 1.4
5 *458:28 *458:30 0.0364295
6 *458:25 *458:29 0.994264
7 *458:24 *458:28 1.4
8 *458:23 *794:A 1.4
9 *458:22 *779:A1 1.4
10 *458:21 *458:25 1.4
11 *458:20 *458:24 0.372849
12 *458:19 *458:23 1.86433
13 *458:19 *458:22 0.372866
14 *458:18 *458:21 0.248578
15 *458:18 *458:20 1.4
16 *458:17 *458:19 1.4
17 *458:16 *458:18 1.36718
18 *458:14 *458:17 0.248566
19 *458:14 *458:16 1.4
20 *458:13 *775:C1 1.4
21 *458:12 *458:14 1.11855
22 *458:11 *458:13 0.745732
23 *458:11 *458:12 1.4
24 *458:9 *458:11 0.248578
25 *458:8 *780:A 1.4
26 *458:7 *458:9 1.4
27 *458:6 *458:8 0.124289
28 *458:5 *458:7 0.124283
29 *458:5 *458:6 1.4
30 *458:4 *458:5 2.3614
31 *458:3 *458:4 1.4
32 *458:2 *458:3 0.0214281
33 *458:1 *458:2 0.00214281
34 *791:B *458:1 1.4
*END

*D_NET *459 0.00391136

*CONN
*I *817:A I *C 33.785 83.665 *L 0.00564 *D NOR2X2
*I *793:B0 I *C 31.755 88.885 *L 0.00164 *D OAI222XL
*I *816:A I *C 27.115 88.885 *L 0.0017 *D MXI2XL
*I *815:B I *C 21.89 88.545 *L 0.00164 *D MXI2XL
*I *829:Y O *C 22.3925 83.955 *L 0 *D CLKINVX1
*I *818:A I *C 21.895 81.055 *L 0.00157 *D NAND2XL

*CAP
1 *459:2 0.000161473
2 *459:3 0.000161473
3 *459:4 0.000390686
4 *459:5 0.000413668
5 *459:6 2.29815e-05
6 *459:7 0.000369081
7 *459:9 0.000730921
8 *459:10 2.29815e-05
9 *459:11 0.00036184
10 *459:12 2.29815e-05
11 *459:13 3.72772e-06
12 *459:15 0.000346305
13 *459:16 3.72772e-07
14 *459:17 0.000342205
15 *459:19 1.93865e-05
16 *459:20 3.87729e-05
17 *459:21 1.93865e-05
18 *459:22 0.000216208
19 *459:23 5.96436e-06
20 *459:24 0.000216208
21 *459:25 5.96436e-06
22 *459:26 1.93865e-05
23 *459:28 1.93865e-05

*RES
1 *459:29 *818:A 1.4
2 *459:28 *459:29 1.4
3 *459:26 *459:28 0.124283
4 *459:25 *829:Y 1.4
5 *459:24 *459:26 1.4
6 *459:23 *459:25 0.034285
7 *459:22 *459:24 1.24283
8 *459:21 *459:23 1.4
9 *459:20 *459:22 1.4
10 *459:20 *459:21 0.124283
11 *459:19 *459:20 0.124283
12 *459:17 *459:19 1.4
13 *459:16 *815:B 1.4
14 *459:15 *459:17 1.9671
15 *459:15 *459:16 0.00214281
16 *459:13 *459:15 0.0214281
17 *459:12 *816:A 1.4
18 *459:11 *459:13 1.4
19 *459:10 *459:12 0.124289
20 *459:9 *459:11 2.2371
21 *459:9 *459:10 1.4
22 *459:7 *459:9 1.98853
23 *459:6 *793:B0 1.4
24 *459:5 *459:7 1.4
25 *459:5 *459:6 0.124289
26 *459:4 *459:5 2.11291
27 *459:3 *459:4 1.4
28 *459:2 *459:3 0.869981
29 *459:1 *459:2 1.4
30 *817:A *459:1 1.4
*END

*D_NET *460 0.00117305

*CONN
*I *807:B I *C 31.17 81.395 *L 0.00164 *D MXI2XL
*I *792:B0 I *C 31.175 78.445 *L 0.00164 *D OAI222XL
*I *828:Y O *C 35.4425 78.735 *L 0 *D CLKINVX1

*CAP
1 *460:1 3.96233e-07
2 *460:2 0.000211192
3 *460:3 0.000233778
4 *460:4 0.000346013
5 *460:5 2.29815e-05
6 *460:6 0.000346013
7 *460:8 6.33974e-06
8 *460:9 6.33974e-06

*RES
1 *460:9 *828:Y 1.4
2 *460:8 *460:9 0.0342866
3 *460:6 *460:8 1.4
4 *460:5 *792:B0 1.4
5 *460:4 *460:6 1.86424
6 *460:3 *460:5 0.124289
7 *460:3 *460:4 1.4
8 *460:2 *460:3 1.14003
9 *460:1 *460:2 0.00214291
10 *807:B *460:1 1.4
*END

*D_NET *461 0.000345933

*CONN
*I *820:B I *C 24.795 81.055 *L 0.00172 *D AND2X1
*I *825:Y O *C 24.795 83.375 *L 0 *D NOR2XL

*CAP
1 *461:1 0.000172966
2 *461:2 0.000172966

*RES
1 *461:2 *825:Y 1.4
2 *461:1 *461:2 0.994265
3 *820:B *461:1 1.4
*END

*D_NET *462 0.0010148

*CONN
*I *813:A I *C 42.195 96.425 *L 0.00259 *D NOR3X1
*I *824:Y O *C 36.105 96.135 *L 0 *D NAND2XL

*CAP
1 *462:1 2.29815e-05
2 *462:2 2.29815e-05
3 *462:3 0.000484418
4 *462:4 0.000484418

*RES
1 *462:5 *824:Y 1.4
2 *462:4 *462:5 1.4
3 *462:3 *462:4 2.60994
4 *462:2 *462:3 1.4
5 *462:1 *462:2 0.124289
6 *813:A *462:1 1.4
*END

*D_NET *463 0.00308779

*CONN
*I *820:A I *C 25.375 81.055 *L 0.00178 *D AND2X1
*I *818:B I *C 22.475 81.055 *L 0.00167 *D NAND2XL
*I *815:S0 I *C 22.185 88.885 *L 0.00372 *D MXI2XL
*I *827:Y O *C 24.505 90.625 *L 0 *D NOR2X1
*I *834:AN I *C 29.725 91.205 *L 0.00178 *D NAND2BX1

*CAP
1 *463:2 0.000193865
2 *463:3 0.000193865
3 *463:4 0.00054052
4 *463:5 0.00054052
5 *463:7 3.87729e-05
6 *463:8 1.93865e-05
7 *463:9 1.93865e-05
8 *463:10 0.000172966
9 *463:11 4.32416e-05
10 *463:12 0.000172966
11 *463:13 4.32416e-05
12 *463:14 0.000116319
13 *463:16 0.000116319
14 *463:17 4.32416e-05
15 *463:18 4.32416e-05
16 *463:20 0.00039497
17 *463:21 0.00039497

*RES
1 *463:22 *834:AN 1.4
2 *463:21 *463:22 1.4
3 *463:20 *463:21 2.23709
4 *463:18 *463:20 1.4
5 *463:17 *827:Y 1.4
6 *463:17 *463:18 0.248566
7 *463:16 *463:17 1.4
8 *463:14 *463:16 0.745699
9 *463:13 *815:S0 1.4
10 *463:12 *463:14 1.4
11 *463:11 *463:13 0.248566
12 *463:10 *463:12 0.994265
13 *463:9 *463:11 1.4
14 *463:8 *463:10 1.4
15 *463:7 *463:9 0.124283
16 *463:7 *463:8 0.124283
17 *463:5 *463:7 1.4
18 *463:4 *818:B 1.4
19 *463:4 *463:5 3.10708
20 *463:3 *463:4 1.4
21 *463:2 *463:3 1.24283
22 *463:1 *463:2 1.4
23 *820:A *463:1 1.4
*END

*D_NET *464 0.00294628

*CONN
*I *816:S0 I *C 26.245 88.885 *L 0.00372 *D MXI2XL
*I *826:Y O *C 26.825 91.785 *L 0 *D NAND2X2
*I *834:B I *C 30.595 91.205 *L 0.00284 *D NAND2BX1
*I *817:B I *C 34.075 83.375 *L 0.00542 *D NOR2X2

*CAP
1 *464:2 2.30675e-05
2 *464:3 2.30675e-05
3 *464:4 0.000137889
4 *464:5 0.000137889
5 *464:6 2.30675e-05
6 *464:7 0.000322946
7 *464:8 9.19262e-05
8 *464:9 0.000576689
9 *464:10 9.19262e-05
10 *464:11 0.00027681
11 *464:12 4.59631e-05
12 *464:14 0.000574539
13 *464:15 4.59631e-05
14 *464:16 0.000574539

*RES
1 *464:16 *817:B 1.4
2 *464:15 *834:B 1.4
3 *464:14 *464:16 3.10722
4 *464:12 *464:15 0.248578
5 *464:11 *464:14 1.4
6 *464:10 *826:Y 1.4
7 *464:9 *464:12 1.4
8 *464:9 *464:11 1.4914
9 *464:8 *464:10 0.497155
10 *464:7 *464:9 1.61568
11 *464:7 *464:8 1.4
12 *464:6 *464:7 0.124283
13 *464:5 *464:6 1.4
14 *464:4 *464:5 0.745732
15 *464:3 *464:4 1.4
16 *464:2 *464:3 0.124283
17 *464:1 *464:2 1.4
18 *816:S0 *464:1 1.4
*END

*D_NET *465 0.000691682

*CONN
*I *813:C I *C 42.775 96.715 *L 0.00278 *D NOR3X1
*I *823:Y O *C 39.005 96.135 *L 0 *D NAND2XL

*CAP
1 *465:2 0.000299878
2 *465:3 0.000299878
3 *465:4 4.59631e-05
4 *465:5 4.59631e-05

*RES
1 *465:5 *823:Y 1.4
2 *465:4 *465:5 0.248578
3 *465:3 *465:4 1.4
4 *465:2 *465:3 1.61568
5 *465:1 *465:2 1.4
6 *813:C *465:1 1.4
*END

*D_NET *466 0.00263133

*CONN
*I *812:A0 I *C 39.93 78.7475 *L 0.00263 *D AOI211X1
*I *819:Y O *C 39.875 94.685 *L 0 *D NOR4X1

*CAP
1 *466:1 4.35857e-06
2 *466:2 5.54727e-06
3 *466:3 1.1887e-06
4 *466:4 2.30675e-05
5 *466:5 2.30675e-05
6 *466:6 0.00126398
7 *466:7 0.00126398
8 *466:8 2.30675e-05
9 *466:9 2.30675e-05

*RES
1 *466:10 *819:Y 1.4
2 *466:9 *466:10 1.4
3 *466:8 *466:9 0.124283
4 *466:7 *466:8 1.4
5 *466:6 *466:7 6.83588
6 *466:5 *466:6 1.4
7 *466:4 *466:5 0.124283
8 *466:3 *466:4 1.4
9 *466:2 *466:3 0.00642873
10 *466:1 *466:2 0.023572
11 *812:A0 *466:1 1.4
*END

*D_NET *467 0.0013361

*CONN
*I *804:A1 I *C 27.985 83.955 *L 0.00278 *D AOI21X1
*I *818:Y O *C 22.475 80.475 *L 0 *D NAND2XL

*CAP
1 *467:2 2.30675e-05
2 *467:3 2.30675e-05
3 *467:4 0.000275778
4 *467:5 0.000275778
5 *467:6 0.000369202
6 *467:7 0.000369202

*RES
1 *467:8 *818:Y 1.4
2 *467:7 *467:8 1.4
3 *467:6 *467:7 2.2371
4 *467:5 *467:6 1.4
5 *467:4 *467:5 1.49146
6 *467:3 *467:4 1.4
7 *467:2 *467:3 0.124283
8 *467:1 *467:2 1.4
9 *804:A1 *467:1 1.4
*END

*D_NET *468 0.00641795

*CONN
*I *811:A1 I *C 54.375 81.055 *L 0.00162 *D OA21XL
*I *814:B I *C 51.765 83.665 *L 0.00167 *D NAND2XL
*I *812:A1 I *C 39.585 78.735 *L 0.00279 *D AOI211X1
*I *804:B0 I *C 28.275 83.665 *L 0.00277 *D AOI21X1
*I *820:Y O *C 25.955 80.475 *L 0 *D AND2X1

*CAP
1 *468:2 2.10557e-05
2 *468:3 2.10557e-05
3 *468:4 0.000187677
4 *468:5 0.000187677
5 *468:6 0.000213575
6 *468:7 0.00120548
7 *468:9 0.000991904
8 *468:11 0.000413668
9 *468:12 2.29815e-05
10 *468:13 0.000390686
11 *468:14 0.000876567
12 *468:15 2.30675e-05
13 *468:16 0.00103804
14 *468:17 2.30675e-05
15 *468:18 2.29815e-05
16 *468:19 0.000161473
17 *468:21 2.29815e-05
18 *468:22 0.000275778
19 *468:25 0.000275778
20 *468:26 2.1227e-05
21 *468:27 2.1227e-05

*RES
1 *468:28 *820:Y 1.4
2 *468:27 *468:28 1.4
3 *468:26 *468:27 0.124283
4 *468:25 *468:26 1.4
5 *468:22 *468:25 1.49146
6 *468:21 *804:B0 1.4
7 *468:20 *812:A1 1.4
8 *468:19 *468:22 1.4
9 *468:18 *468:21 0.124289
10 *468:17 *468:20 1.4
11 *468:16 *468:19 0.869981
12 *468:16 *468:18 1.4
13 *468:15 *468:17 0.124283
14 *468:14 *468:16 4.72275
15 *468:13 *468:15 1.4
16 *468:12 *468:14 1.4
17 *468:11 *468:13 2.11291
18 *468:11 *468:12 0.124289
19 *468:9 *468:11 1.4
20 *468:8 *814:B 1.4
21 *468:7 *468:9 5.34417
22 *468:7 *468:8 1.4
23 *468:6 *468:7 1.24288
24 *468:5 *468:6 1.4
25 *468:4 *468:5 1.11855
26 *468:3 *468:4 1.4
27 *468:2 *468:3 0.124289
28 *468:1 *468:2 1.4
29 *811:A1 *468:1 1.4
*END

*D_NET *469 0.00211826

*CONN
*I *810:A I *C 38.135 83.665 *L 0.00157 *D NAND2XL
*I *809:B I *C 37.555 80.475 *L 0.00284 *D NAND2X1
*I *817:Y O *C 34.365 83.085 *L 0 *D NOR2X2
*I *807:S0 I *C 31.465 81.055 *L 0.00372 *D MXI2XL

*CAP
1 *469:1 4.59631e-05
2 *469:2 4.59631e-05
3 *469:3 4.61351e-05
4 *469:4 4.61351e-05
5 *469:5 6.89446e-05
6 *469:6 0.00029876
7 *469:7 0.000253743
8 *469:8 0.000229815
9 *469:9 0.000253743
10 *469:11 2.29815e-05
11 *469:12 0.000160871
12 *469:14 0.000137889
13 *469:15 0.000230675
14 *469:16 0.000230675
15 *469:17 2.29815e-05
16 *469:18 2.29815e-05

*RES
1 *469:18 *807:S0 1.4
2 *469:17 *469:18 0.124289
3 *469:16 *469:17 1.4
4 *469:15 *469:16 1.24283
5 *469:14 *469:15 1.4
6 *469:12 *469:14 0.745732
7 *469:12 *817:Y 1.4
8 *469:11 *469:12 0.124289
9 *469:9 *469:11 1.4
10 *469:8 *809:B 1.4
11 *469:7 *469:9 1.36711
12 *469:6 *469:8 1.24289
13 *469:6 *469:7 1.4
14 *469:5 *469:6 0.372866
15 *469:4 *469:5 1.4
16 *469:3 *469:4 0.248566
17 *469:2 *469:3 1.4
18 *469:1 *469:2 0.248578
19 *810:A *469:1 1.4
*END

*D_NET *470 0.00110655

*CONN
*I *793:C1 I *C 32.625 88.885 *L 0.00179 *D OAI222XL
*I *816:Y O *C 26.825 89.465 *L 0 *D MXI2XL

*CAP
1 *470:1 6.89446e-05
2 *470:2 6.89446e-05
3 *470:3 0.000461351
4 *470:4 0.000461351
5 *470:5 2.29815e-05
6 *470:6 2.29815e-05

*RES
1 *470:6 *816:Y 1.4
2 *470:5 *470:6 0.124289
3 *470:4 *470:5 1.4
4 *470:3 *470:4 2.48566
5 *470:2 *470:3 1.4
6 *470:1 *470:2 0.372866
7 *793:C1 *470:1 1.4
*END

*D_NET *471 0.00116081

*CONN
*I *793:A0 I *C 30.305 89.175 *L 0.00163 *D OAI222XL
*I *815:Y O *C 22.765 89.465 *L 0 *D MXI2XL

*CAP
1 *471:1 2.29815e-05
2 *471:2 2.29815e-05
3 *471:3 0.000557424
4 *471:4 0.000557424

*RES
1 *471:5 *815:Y 1.4
2 *471:4 *471:5 1.4
3 *471:3 *471:4 3.23136
4 *471:2 *471:3 1.4
5 *471:1 *471:2 0.124289
6 *793:A0 *471:1 1.4
*END

*D_NET *472 0.00266809

*CONN
*I *810:B I *C 38.715 83.665 *L 0.00167 *D NAND2XL
*I *813:Y O *C 42.485 96.135 *L 0 *D NOR3X1

*CAP
1 *472:1 2.29815e-05
2 *472:2 2.29815e-05
3 *472:3 0.000299878
4 *472:4 0.000299878
5 *472:5 0.00101119
6 *472:6 0.00101119

*RES
1 *472:6 *813:Y 1.4
2 *472:5 *472:6 5.46871
3 *472:4 *472:5 1.4
4 *472:3 *472:4 1.61568
5 *472:2 *472:3 1.4
6 *472:1 *472:2 0.124289
7 *810:B *472:1 1.4
*END

*D_NET *473 0.00279356

*CONN
*I *805:B I *C 55.825 91.205 *L 0.0028 *D NOR2X1
*I *802:A1 I *C 53.215 89.175 *L 0.00278 *D AOI21X1
*I *814:Y O *C 51.765 84.245 *L 0 *D NAND2XL
*I *811:B0 I *C 54.955 80.475 *L 0.0017 *D OA21XL

*CAP
1 *473:1 0.000104265
2 *473:2 0.000104265
3 *473:3 0.000189501
4 *473:4 0.000297798
5 *473:5 4.1706e-05
6 *473:6 0.000108296
7 *473:7 4.1706e-05
8 *473:8 0.000436649
9 *473:10 0.000551557
10 *473:12 0.000114908
11 *473:13 0.000234631
12 *473:14 0.000234631
13 *473:15 0.000166824
14 *473:16 0.000166824

*RES
1 *473:16 *811:B0 1.4
2 *473:15 *473:16 0.994265
3 *473:14 *473:15 1.4
4 *473:13 *473:14 1.36717
5 *473:12 *473:13 1.4
6 *473:10 *473:12 0.621444
7 *473:10 *814:Y 1.4
8 *473:8 *473:10 2.36149
9 *473:7 *802:A1 1.4
10 *473:6 *473:8 1.4
11 *473:5 *473:7 0.248566
12 *473:4 *473:6 0.621435
13 *473:4 *473:5 1.4
14 *473:3 *473:4 1.1186
15 *473:2 *473:3 1.4
16 *473:1 *473:2 0.621415
17 *805:B *473:1 1.4
*END

*D_NET *474 0.00165639

*CONN
*I *803:A I *C 39.005 85.985 *L 0.00263 *D NOR2X1
*I *800:A I *C 41.035 83.665 *L 0.00157 *D NAND2XL
*I *812:Y O *C 39.295 79.025 *L 0 *D AOI211X1

*CAP
1 *474:2 4.61351e-05
2 *474:3 4.61351e-05
3 *474:4 0.000229815
4 *474:5 0.000229815
5 *474:6 0.000161473
6 *474:7 0.000115338
7 *474:8 4.61351e-05
8 *474:9 4.59631e-05
9 *474:10 0.000321742
10 *474:11 4.59631e-05
11 *474:12 0.000321742
12 *474:14 2.30675e-05
13 *474:15 2.30675e-05

*RES
1 *474:16 *812:Y 1.4
2 *474:15 *474:16 1.4
3 *474:14 *474:15 0.124283
4 *474:12 *474:14 1.4
5 *474:11 *800:A 1.4
6 *474:10 *474:12 1.74004
7 *474:9 *474:11 0.248578
8 *474:8 *474:10 1.4
9 *474:7 *474:9 1.4
10 *474:6 *474:8 0.248566
11 *474:6 *474:7 0.621415
12 *474:5 *474:6 1.4
13 *474:4 *474:5 1.24289
14 *474:3 *474:4 1.4
15 *474:2 *474:3 0.248566
16 *474:1 *474:2 1.4
17 *803:A *474:1 1.4
*END

*D_NET *475 0.0012901

*CONN
*I *784:A0 I *C 49.735 78.735 *L 0.00163 *D OAI222XL
*I *811:Y O *C 55.535 81.345 *L 0 *D OA21XL

*CAP
1 *475:2 2.30675e-05
2 *475:3 2.30675e-05
3 *475:4 0.000206834
4 *475:5 0.000206834
5 *475:6 0.000415147
6 *475:7 0.000415147

*RES
1 *475:8 *811:Y 1.4
2 *475:7 *475:8 1.4
3 *475:6 *475:7 2.36144
4 *475:5 *475:6 1.4
5 *475:4 *475:5 1.1186
6 *475:3 *475:4 1.4
7 *475:2 *475:3 0.124283
8 *475:1 *475:2 1.4
9 *784:A0 *475:1 1.4
*END

*D_NET *476 0.00264101

*CONN
*I *808:C I *C 32.045 73.515 *L 0.00289 *D NAND3BX1
*I *810:Y O *C 38.715 84.245 *L 0 *D NAND2XL

*CAP
1 *476:2 0.000498009
2 *476:3 0.000498009
3 *476:4 0.000822495
4 *476:5 0.000822495

*RES
1 *476:5 *810:Y 1.4
2 *476:4 *476:5 4.59858
3 *476:3 *476:4 1.4
4 *476:2 *476:3 2.85864
5 *476:1 *476:2 1.4
6 *808:C *476:1 1.4
*END

*D_NET *477 0.00152091

*CONN
*I *798:B I *C 44.515 83.665 *L 0.00171 *D NOR2XL
*I *796:S0 I *C 41.325 81.055 *L 0.00372 *D MXI2XL
*I *809:Y O *C 37.555 81.345 *L 0 *D NAND2X1

*CAP
1 *477:1 0.000183852
2 *477:2 0.000183852
3 *477:3 0.000253743
4 *477:4 0.000553621
5 *477:5 2.29815e-05
6 *477:6 0.000299878
7 *477:7 2.29815e-05

*RES
1 *477:8 *809:Y 1.4
2 *477:7 *796:S0 1.4
3 *477:6 *477:8 1.4
4 *477:5 *477:7 0.124289
5 *477:4 *477:6 1.61568
6 *477:4 *477:5 1.4
7 *477:3 *477:4 1.36711
8 *477:2 *477:3 1.4
9 *477:1 *477:2 0.99431
10 *798:B *477:1 1.4
*END

*D_NET *478 0.000321742

*CONN
*I *792:C1 I *C 32.045 78.445 *L 0.00179 *D OAI222XL
*I *807:Y O *C 32.045 80.475 *L 0 *D MXI2XL

*CAP
1 *478:1 0.000160871
2 *478:2 0.000160871

*RES
1 *478:2 *807:Y 1.4
2 *478:1 *478:2 0.870021
3 *792:C1 *478:1 1.4
*END

*D_NET *479 0.0022702

*CONN
*I *782:A0 I *C 41.615 91.205 *L 0.00268 *D OAI31X1
*I *806:Y O *C 38.9225 89.175 *L 0 *D CLKINVX1
*I *783:B0 I *C 45.095 86.275 *L 0.0028 *D OAI211X1
*I *803:B I *C 38.715 85.985 *L 0.0028 *D NOR2X1

*CAP
1 *479:1 2.29815e-05
2 *479:2 2.29815e-05
3 *479:3 0.00018454
4 *479:4 0.00018454
5 *479:5 0.000137889
6 *479:6 0.000137889
7 *479:7 2.30675e-05
8 *479:8 2.30675e-05
9 *479:9 0.000236155
10 *479:10 6.33974e-06
11 *479:11 0.000252797
12 *479:13 0.000484418
13 *479:14 2.29815e-05
14 *479:15 0.000484418
15 *479:16 2.30675e-05
16 *479:18 2.30675e-05

*RES
1 *479:20 *803:B 1.4
2 *479:18 *479:20 1.4
3 *479:17 *783:B0 1.4
4 *479:16 *479:18 0.124283
5 *479:15 *479:17 1.4
6 *479:14 *479:16 1.4
7 *479:13 *479:15 2.60994
8 *479:11 *479:14 0.124289
9 *479:11 *479:13 1.4
10 *479:10 *806:Y 1.4
11 *479:9 *479:11 1.24289
12 *479:9 *479:10 0.0342866
13 *479:8 *479:9 1.4
14 *479:7 *479:8 0.124283
15 *479:6 *479:7 1.4
16 *479:5 *479:6 0.745732
17 *479:4 *479:5 1.4
18 *479:3 *479:4 0.994264
19 *479:2 *479:3 1.4
20 *479:1 *479:2 0.124289
21 *782:A0 *479:1 1.4
*END

*D_NET *480 0.00969426

*CONN
*I *784:C1 I *C 47.415 78.445 *L 0.00179 *D OAI222XL
*I *800:B I *C 41.615 83.665 *L 0.00167 *D NAND2XL
*I *806:A I *C 39.295 89.175 *L 0.00273 *D CLKINVX1
*I *789:A1 I *C 33.785 91.495 *L 0.00278 *D OAI211X1
*I *779:A0 I *C 43.645 94.105 *L 0.00161 *D OAI31XL
*I *793:C0 I *C 32.045 88.885 *L 0.00167 *D OAI222XL
*I *775:B0 I *C 48.285 91.495 *L 0.00164 *D OAI222XL
*I *792:C0 I *C 31.465 78.445 *L 0.00167 *D OAI222XL
*I *808:Y O *C 32.335 72.935 *L 0 *D NAND3BX1

*CAP
1 *480:1 2.29815e-05
2 *480:2 2.29815e-05
3 *480:3 0.000415216
4 *480:4 0.000415216
5 *480:5 0.000390686
6 *480:6 0.000735409
7 *480:7 0.000344723
8 *480:8 4.61351e-05
9 *480:9 0.000207608
10 *480:10 4.61351e-05
11 *480:11 0.000207608
12 *480:13 9.19262e-05
13 *480:15 0.000252797
14 *480:16 0.000206834
15 *480:17 2.30675e-05
16 *480:18 4.59631e-05
17 *480:19 0.000322946
18 *480:20 2.30675e-05
19 *480:21 0.000461351
20 *480:22 0.000322946
21 *480:24 0.000599756
22 *480:25 4.59631e-05
23 *480:27 2.29815e-05
24 *480:28 0.000138405
25 *480:29 0.000229815
26 *480:30 2.29815e-05
27 *480:31 0.000229815
28 *480:32 0.000183852
29 *480:33 0.000369081
30 *480:35 0.00105715
31 *480:37 0.000369081
32 *480:39 0.00123279
33 *480:40 2.29815e-05
34 *480:41 4.61351e-05
35 *480:42 0.000405454
36 *480:43 2.29815e-05
37 *480:44 4.61351e-05
38 *480:45 2.16526e-05
39 *480:48 2.16526e-05

*RES
1 *480:50 *808:Y 1.4
2 *480:48 *480:50 1.4
3 *480:47 *792:C0 1.4
4 *480:45 *480:48 0.124289
5 *480:44 *480:47 1.4
6 *480:43 *775:B0 1.4
7 *480:42 *480:45 1.4
8 *480:41 *480:44 0.248566
9 *480:40 *480:43 0.124289
10 *480:39 *480:42 2.36137
11 *480:39 *480:41 1.4
12 *480:37 *480:40 1.4
13 *480:35 *480:39 4.4744
14 *480:35 *793:C0 1.4
15 *480:33 *480:37 1.98853
16 *480:32 *779:A0 1.4
17 *480:31 *480:35 1.24289
18 *480:30 *789:A1 1.4
19 *480:29 *480:33 1.4
20 *480:29 *480:32 0.99431
21 *480:28 *480:31 1.4
22 *480:27 *480:30 0.124289
23 *480:25 *480:29 0.248578
24 *480:24 *480:28 0.745698
25 *480:24 *480:27 1.4
26 *480:23 *806:A 1.4
27 *480:22 *480:25 1.4
28 *480:21 *480:24 2.48566
29 *480:20 *480:23 1.4
30 *480:19 *480:22 1.73996
31 *480:18 *480:21 1.4
32 *480:17 *480:20 0.124283
33 *480:16 *480:19 1.4
34 *480:16 *480:18 0.248578
35 *480:15 *480:17 1.4
36 *480:15 *480:16 0.870021
37 *480:13 *480:15 0.497155
38 *480:12 *800:B 1.4
39 *480:11 *480:13 1.4
40 *480:10 *480:12 1.4
41 *480:9 *480:11 1.11855
42 *480:8 *480:10 0.248566
43 *480:7 *480:9 1.4
44 *480:6 *480:8 1.4
45 *480:6 *480:7 1.86433
46 *480:5 *480:6 2.11291
47 *480:4 *480:5 1.4
48 *480:3 *480:4 2.23709
49 *480:2 *480:3 1.4
50 *480:1 *480:2 0.124289
51 *784:C1 *480:1 1.4
*END

*D_NET *481 0.00124255

*CONN
*I *792:A0 I *C 29.725 78.735 *L 0.00163 *D OAI222XL
*I *804:Y O *C 28.855 83.955 *L 0 *D AOI21X1

*CAP
1 *481:2 0.000138405
2 *481:3 0.000138405
3 *481:4 0.000413668
4 *481:5 0.000413668
5 *481:6 6.92026e-05
6 *481:7 6.92026e-05

*RES
1 *481:8 *804:Y 1.4
2 *481:7 *481:8 1.4
3 *481:6 *481:7 0.372849
4 *481:5 *481:6 1.4
5 *481:4 *481:5 2.2372
6 *481:3 *481:4 1.4
7 *481:2 *481:3 0.745698
8 *481:1 *481:2 1.4
9 *792:A0 *481:1 1.4
*END

*D_NET *482 0.00310728

*CONN
*I *794:B I *C 44.805 88.885 *L 0.00167 *D NAND2XL
*I *805:Y O *C 55.825 90.625 *L 0 *D NOR2X1
*I *802:B0 I *C 52.925 88.885 *L 0.00277 *D AOI21X1
*I *791:S0 I *C 52.925 94.105 *L 0.00372 *D MXI2XL

*CAP
1 *482:1 2.29815e-05
2 *482:2 2.29815e-05
3 *482:3 0.00059875
4 *482:4 0.00059875
5 *482:5 0.000145971
6 *482:6 0.000145971
7 *482:7 8.72406e-05
8 *482:8 0.000252669
9 *482:9 4.51292e-05
10 *482:10 0.000210557
11 *482:11 0.000125118
12 *482:12 0.000275778
13 *482:14 0.000125118
14 *482:15 0.000275778
15 *482:18 8.72406e-05
16 *482:19 8.72406e-05

*RES
1 *482:20 *791:S0 1.4
2 *482:19 *482:20 1.4
3 *482:18 *482:19 0.497146
4 *482:15 *482:18 1.4
5 *482:14 *802:B0 1.4
6 *482:13 *805:Y 1.4
7 *482:12 *482:15 1.49146
8 *482:11 *482:14 0.745698
9 *482:10 *482:13 1.4
10 *482:9 *482:12 1.4
11 *482:8 *482:11 1.4
12 *482:8 *482:10 1.24289
13 *482:7 *482:9 0.248569
14 *482:7 *482:8 0.248578
15 *482:6 *482:7 1.4
16 *482:5 *482:6 0.869982
17 *482:4 *482:5 1.4
18 *482:3 *482:4 3.23136
19 *482:2 *482:3 1.4
20 *482:1 *482:2 0.124289
21 *794:B *482:1 1.4
*END

*D_NET *483 0.000546836

*CONN
*I *778:A0 I *C 49.735 88.885 *L 0.00267 *D OAI211X1
*I *802:Y O *C 52.345 89.175 *L 0 *D AOI21X1

*CAP
1 *483:1 4.59631e-05
2 *483:2 4.59631e-05
3 *483:3 0.000206602
4 *483:4 0.000206602
5 *483:5 2.0853e-05
6 *483:6 2.0853e-05

*RES
1 *483:6 *802:Y 1.4
2 *483:5 *483:6 0.124283
3 *483:4 *483:5 1.4
4 *483:3 *483:4 1.11855
5 *483:2 *483:3 1.4
6 *483:1 *483:2 0.248578
7 *778:A0 *483:1 1.4
*END

*D_NET *484 0.00797816

*CONN
*I *784:B1 I *C 48.575 78.445 *L 0.00164 *D OAI222XL
*I *801:Y O *C 36.3125 89.175 *L 0 *D CLKINVX1
*I *775:C0 I *C 47.995 91.495 *L 0.00167 *D OAI222XL
*I *792:B1 I *C 30.885 78.445 *L 0.00164 *D OAI222XL
*I *793:B1 I *C 31.465 88.885 *L 0.00164 *D OAI222XL
*I *795:B I *C 32.62 93.765 *L 0.00164 *D MXI2XL

*CAP
1 *484:1 2.21384e-05
2 *484:2 2.21384e-05
3 *484:3 2.16526e-05
4 *484:4 2.16526e-05
5 *484:5 0.000895437
6 *484:6 0.000895437
7 *484:7 4.61351e-05
8 *484:8 0.000945769
9 *484:9 0.000160871
10 *484:10 0.000899634
11 *484:11 0.000160871
12 *484:12 6.89446e-05
13 *484:13 2.30675e-05
14 *484:14 4.59631e-05
15 *484:15 2.93213e-05
16 *484:16 2.30675e-05
17 *484:17 0.000322946
18 *484:18 6.33974e-06
19 *484:20 0.000438283
20 *484:23 0.000390686
21 *484:24 0.000115338
22 *484:25 0.00029876
23 *484:26 9.19262e-05
24 *484:27 0.000919262
25 *484:28 2.30675e-05
26 *484:29 6.92026e-05
27 *484:30 0.000919262
28 *484:31 2.30675e-05
29 *484:32 6.92026e-05
30 *484:34 3.96233e-06
31 *484:36 4.35857e-06
32 *484:38 3.96233e-07

*RES
1 *484:38 *795:B 1.4
2 *484:36 *484:38 0.00214291
3 *484:35 *793:B1 1.4
4 *484:34 *484:36 0.0214291
5 *484:32 *484:35 1.4
6 *484:31 *484:34 1.4
7 *484:30 *792:B1 1.4
8 *484:29 *484:32 0.372849
9 *484:28 *484:31 0.124283
10 *484:27 *484:30 4.97155
11 *484:26 *484:29 1.4
12 *484:25 *484:28 1.4
13 *484:24 *484:27 1.4
14 *484:23 *484:26 0.497155
15 *484:23 *484:25 1.61575
16 *484:20 *484:24 0.621415
17 *484:20 *484:23 1.4
18 *484:19 *775:C0 1.4
19 *484:18 *801:Y 1.4
20 *484:17 *484:20 1.73996
21 *484:16 *484:19 1.4
22 *484:15 *484:18 0.0342866
23 *484:14 *484:17 1.4
24 *484:13 *484:16 0.124283
25 *484:12 *484:15 0.124289
26 *484:12 *484:14 0.248578
27 *484:11 *484:13 1.4
28 *484:10 *484:12 1.4
29 *484:9 *484:11 0.870021
30 *484:8 *484:10 4.84703
31 *484:8 *484:9 1.4
32 *484:7 *484:8 0.248566
33 *484:6 *484:7 1.4
34 *484:5 *484:6 4.84726
35 *484:4 *484:5 1.4
36 *484:3 *484:4 0.124289
37 *484:2 *484:3 1.4
38 *484:1 *484:2 0.124286
39 *784:B1 *484:1 1.4
*END

*D_NET *485 0.00423703

*CONN
*I *797:B I *C 29.435 94.105 *L 0.00167 *D NAND2XL
*I *795:A I *C 33.785 94.105 *L 0.0017 *D MXI2XL
*I *801:A I *C 36.685 89.175 *L 0.00273 *D CLKINVX1
*I *803:Y O *C 38.715 85.405 *L 0 *D NOR2X1
*I *799:B I *C 41.905 88.885 *L 0.00167 *D NAND2XL
*I *782:A1 I *C 42.485 91.495 *L 0.00267 *D OAI31X1

*CAP
1 *485:2 0.000346013
2 *485:3 0.000576689
3 *485:4 0.000230675
4 *485:6 0.000344723
5 *485:8 0.000390686
6 *485:9 0.000161473
7 *485:10 4.59631e-05
8 *485:11 0.000161473
9 *485:13 9.19262e-05
10 *485:14 0.000344723
11 *485:15 0.000253743
12 *485:16 0.000252797
13 *485:17 0.000346013
14 *485:19 9.22702e-05
15 *485:20 2.29815e-05
16 *485:21 0.000229815
17 *485:22 2.29815e-05
18 *485:23 0.000229815
19 *485:25 4.61351e-05
20 *485:26 4.61351e-05

*RES
1 *485:27 *782:A1 1.4
2 *485:26 *485:27 1.4
3 *485:25 *485:26 0.248566
4 *485:23 *485:25 1.4
5 *485:22 *799:B 1.4
6 *485:21 *485:23 1.24289
7 *485:20 *485:22 0.124289
8 *485:19 *485:21 1.4
9 *485:17 *485:20 1.4
10 *485:17 *485:19 0.497132
11 *485:16 *803:Y 1.4
12 *485:15 *485:17 1.36711
13 *485:14 *485:16 1.36718
14 *485:14 *485:15 1.4
15 *485:13 *485:14 0.497155
16 *485:11 *485:13 1.4
17 *485:10 *801:A 1.4
18 *485:9 *485:11 0.869981
19 *485:8 *485:10 0.248578
20 *485:8 *485:9 1.4
21 *485:6 *485:8 1.86433
22 *485:5 *795:A 1.4
23 *485:4 *485:6 1.4
24 *485:3 *485:5 1.4
25 *485:3 *485:4 1.24283
26 *485:2 *485:3 1.86424
27 *485:1 *485:2 1.4
28 *797:B *485:1 1.4
*END

*D_NET *486 0.00814802

*CONN
*I *833:AN I *C 37.265 91.205 *L 0.00178 *D NAND2BX1
*I *793:A1 I *C 30.595 88.885 *L 0.00162 *D OAI222XL
*I *800:Y O *C 41.615 84.245 *L 0 *D NAND2XL
*I *792:A1 I *C 30.015 78.445 *L 0.00162 *D OAI222XL
*I *778:A1 I *C 49.155 88.885 *L 0.00278 *D OAI211X1
*I *784:A1 I *C 49.445 78.445 *L 0.00162 *D OAI222XL
*I *775:A0 I *C 49.735 91.205 *L 0.00163 *D OAI222XL

*CAP
1 *486:2 2.30675e-05
2 *486:3 2.30675e-05
3 *486:4 0.000229815
4 *486:5 0.000229815
5 *486:6 2.30675e-05
6 *486:7 0.000553621
7 *486:8 0.00029876
8 *486:9 0.000530553
9 *486:10 0.00029876
10 *486:11 0.000827335
11 *486:12 0.000346013
12 *486:13 4.59631e-05
13 *486:14 0.000781372
14 *486:15 0.000346013
15 *486:17 4.61351e-05
16 *486:18 2.29815e-05
17 *486:19 4.61351e-05
18 *486:20 2.29815e-05
19 *486:22 0.000622824
20 *486:25 0.000645891
21 *486:26 2.30675e-05
22 *486:27 0.000367705
23 *486:28 0.000459631
24 *486:29 0.000551557
25 *486:30 0.000459631
26 *486:31 0.000183852
27 *486:32 2.30675e-05
28 *486:33 2.30675e-05
29 *486:34 2.30675e-05
30 *486:35 2.30675e-05
31 *486:36 2.30675e-05
32 *486:37 2.30675e-05

*RES
1 *486:40 *775:A0 1.4
2 *486:39 *784:A1 1.4
3 *486:38 *778:A1 1.4
4 *486:37 *486:40 1.4
5 *486:36 *486:39 1.4
6 *486:35 *486:38 1.4
7 *486:34 *486:37 0.124283
8 *486:33 *486:36 0.124283
9 *486:32 *486:35 0.124283
10 *486:31 *486:34 1.4
11 *486:30 *486:33 1.4
12 *486:29 *486:32 1.4
13 *486:29 *486:31 0.99431
14 *486:28 *486:30 2.48577
15 *486:27 *486:29 1.98862
16 *486:26 *486:28 1.4
17 *486:25 *486:27 1.4
18 *486:25 *486:26 0.124283
19 *486:22 *486:25 3.35564
20 *486:21 *792:A1 1.4
21 *486:20 *800:Y 1.4
22 *486:20 *486:22 1.4
23 *486:19 *486:21 1.4
24 *486:18 *486:20 0.124289
25 *486:17 *486:19 0.248566
26 *486:15 *486:18 1.4
27 *486:14 *486:17 1.4
28 *486:13 *793:A1 1.4
29 *486:12 *486:15 1.86424
30 *486:11 *486:14 4.22582
31 *486:11 *486:13 0.248578
32 *486:10 *486:12 1.4
33 *486:9 *486:11 1.4
34 *486:8 *486:10 1.61575
35 *486:7 *486:9 2.85851
36 *486:7 *486:8 1.4
37 *486:6 *486:7 0.124283
38 *486:5 *486:6 1.4
39 *486:4 *486:5 1.24289
40 *486:3 *486:4 1.4
41 *486:2 *486:3 0.124283
42 *486:1 *486:2 1.4
43 *833:AN *486:1 1.4
*END

*D_NET *487 0.00129109

*CONN
*I *778:B0 I *C 48.865 88.885 *L 0.0028 *D OAI211X1
*I *799:Y O *C 41.905 89.465 *L 0 *D NAND2XL

*CAP
1 *487:1 6.89446e-05
2 *487:2 6.89446e-05
3 *487:3 0.000553621
4 *487:4 0.000553621
5 *487:5 2.29815e-05
6 *487:6 2.29815e-05

*RES
1 *487:6 *799:Y 1.4
2 *487:5 *487:6 0.124289
3 *487:4 *487:5 1.4
4 *487:3 *487:4 2.98279
5 *487:2 *487:3 1.4
6 *487:1 *487:2 0.372866
7 *778:B0 *487:1 1.4
*END

*D_NET *488 0.00115149

*CONN
*I *789:B0 I *C 33.495 91.495 *L 0.0028 *D OAI211X1
*I *797:Y O *C 29.435 94.685 *L 0 *D NAND2XL

*CAP
1 *488:1 0.000252797
2 *488:2 0.000252797
3 *488:3 0.000322946
4 *488:4 0.000322946

*RES
1 *488:5 *797:Y 1.4
2 *488:4 *488:5 1.4
3 *488:3 *488:4 1.73996
4 *488:2 *488:3 1.4
5 *488:1 *488:2 1.36718
6 *789:B0 *488:1 1.4
*END

*D_NET *489 0.000966945

*CONN
*I *787:B I *C 47.705 83.665 *L 0.00167 *D NAND2XL
*I *798:Y O *C 44.805 83.375 *L 0 *D NOR2XL
*I *783:A1 I *C 44.805 86.275 *L 0.00278 *D OAI211X1

*CAP
1 *489:1 2.29815e-05
2 *489:2 2.29815e-05
3 *489:3 0.000230675
4 *489:4 0.000230675
5 *489:5 0.000229815
6 *489:6 0.000229815

*RES
1 *489:6 *783:A1 1.4
2 *489:5 *798:Y 1.4
3 *489:5 *489:6 1.24289
4 *489:4 *489:5 1.4
5 *489:3 *489:4 1.24283
6 *489:2 *489:3 1.4
7 *489:1 *489:2 0.124289
8 *787:B *489:1 1.4
*END

*D_NET *490 0.00129058

*CONN
*I *784:C0 I *C 47.995 78.445 *L 0.00167 *D OAI222XL
*I *796:Y O *C 41.905 80.475 *L 0 *D MXI2XL

*CAP
1 *490:1 0.000160871
2 *490:2 0.000160871
3 *490:3 0.000484418
4 *490:4 0.000484418

*RES
1 *490:5 *796:Y 1.4
2 *490:4 *490:5 1.4
3 *490:3 *490:4 2.60994
4 *490:2 *490:3 1.4
5 *490:1 *490:2 0.870021
6 *784:C0 *490:1 1.4
*END

*D_NET *491 0.000873643

*CONN
*I *790:D I *C 33.495 99.615 *L 0.00289 *D SDFFRHQX4
*I *795:Y O *C 33.495 94.685 *L 0 *D MXI2XL

*CAP
1 *491:2 2.30675e-05
2 *491:3 2.30675e-05
3 *491:4 0.000390686
4 *491:5 0.000390686
5 *491:6 2.30675e-05
6 *491:7 2.30675e-05

*RES
1 *491:8 *795:Y 1.4
2 *491:7 *491:8 1.4
3 *491:6 *491:7 0.124283
4 *491:5 *491:6 1.4
5 *491:4 *491:5 2.11291
6 *491:3 *491:4 1.4
7 *491:2 *491:3 0.124283
8 *491:1 *491:2 1.4
9 *790:D *491:1 1.4
*END

*D_NET *492 0.000598724

*CONN
*I *782:A2 I *C 42.775 91.205 *L 0.00279 *D OAI31X1
*I *794:Y O *C 44.805 89.465 *L 0 *D NAND2XL

*CAP
1 *492:1 4.59631e-05
2 *492:2 4.59631e-05
3 *492:3 0.000161473
4 *492:4 0.000161473
5 *492:5 9.19262e-05
6 *492:6 9.19262e-05

*RES
1 *492:6 *794:Y 1.4
2 *492:5 *492:6 0.497155
3 *492:4 *492:5 1.4
4 *492:3 *492:4 0.869981
5 *492:2 *492:3 1.4
6 *492:1 *492:2 0.248578
7 *782:A2 *492:1 1.4
*END

*D_NET *493 0.000644515

*CONN
*I *786:D I *C 32.915 85.985 *L 0.0028 *D SDFFRHQX2
*I *793:Y O *C 31.175 88.305 *L 0 *D OAI222XL

*CAP
1 *493:2 0.000138405
2 *493:3 0.000138405
3 *493:4 0.000183852
4 *493:5 0.000183852

*RES
1 *493:5 *793:Y 1.4
2 *493:4 *493:5 0.99431
3 *493:3 *493:4 1.4
4 *493:2 *493:3 0.745698
5 *493:1 *493:2 1.4
6 *786:D *493:1 1.4
*END

*D_NET *494 0.00120683

*CONN
*I *788:D I *C 35.815 75.545 *L 0.0028 *D SDFFRHQX2
*I *792:Y O *C 30.595 77.865 *L 0 *D OAI222XL

*CAP
1 *494:2 0.000411399
2 *494:3 0.000411399
3 *494:4 0.000170363
4 *494:5 0.000170363
5 *494:6 2.16526e-05
6 *494:7 2.16526e-05

*RES
1 *494:8 *792:Y 1.4
2 *494:7 *494:8 1.4
3 *494:6 *494:7 0.124289
4 *494:5 *494:6 1.4
5 *494:4 *494:5 0.994261
6 *494:3 *494:4 1.4
7 *494:2 *494:3 2.36149
8 *494:1 *494:2 1.4
9 *788:D *494:1 1.4
*END

*D_NET *495 0.000964933

*CONN
*I *775:A1 I *C 49.445 91.495 *L 0.00162 *D OAI222XL
*I *791:Y O *C 52.345 94.685 *L 0 *D MXI2XL

*CAP
1 *495:2 2.30675e-05
2 *495:3 2.30675e-05
3 *495:4 0.000252797
4 *495:5 0.000252797
5 *495:6 0.000206602
6 *495:7 0.000206602

*RES
1 *495:8 *791:Y 1.4
2 *495:7 *495:8 1.4
3 *495:6 *495:7 1.11855
4 *495:5 *495:6 1.4
5 *495:4 *495:5 1.36718
6 *495:3 *495:4 1.4
7 *495:2 *495:3 0.124283
8 *495:1 *495:2 1.4
9 *775:A1 *495:1 1.4
*END

*D_NET *496 0.00110466

*CONN
*I *785:D I *C 30.305 96.425 *L 0.0028 *D SDFFRHQX2
*I *789:Y O *C 32.915 92.075 *L 0 *D OAI211X1

*CAP
1 *496:1 0.000344723
2 *496:2 0.000344723
3 *496:3 0.000207608
4 *496:4 0.000207608

*RES
1 *496:5 *789:Y 1.4
2 *496:4 *496:5 1.4
3 *496:3 *496:4 1.11855
4 *496:2 *496:3 1.4
5 *496:1 *496:2 1.86433
6 *785:D *496:1 1.4
*END

*D_NET *497 0.00271612

*CONN
*I *780:S0 I *C 48.575 94.105 *L 0.00372 *D MXI2XL
*I *779:A2 I *C 44.515 94.105 *L 0.00171 *D OAI31XL
*I *783:C0 I *C 45.385 85.695 *L 0.00287 *D OAI211X1
*I *787:Y O *C 47.705 84.245 *L 0 *D NAND2XL

*CAP
1 *497:2 0.000322946
2 *497:3 0.000322946
3 *497:4 0.000666465
4 *497:6 0.000666465
5 *497:7 6.92026e-05
6 *497:8 0.000253743
7 *497:9 0.00018454
8 *497:11 0.000114908
9 *497:13 0.000114908

*RES
1 *497:13 *787:Y 1.4
2 *497:11 *497:13 0.621444
3 *497:10 *783:C0 1.4
4 *497:9 *497:11 1.4
5 *497:8 *497:10 1.4
6 *497:8 *497:9 0.994264
7 *497:7 *497:8 0.372849
8 *497:6 *497:7 1.4
9 *497:4 *497:6 3.60437
10 *497:4 *779:A2 1.4
11 *497:3 *497:4 1.4
12 *497:2 *497:3 1.73996
13 *497:1 *497:2 1.4
14 *780:S0 *497:1 1.4
*END

*D_NET *498 0.000729043

*CONN
*I *781:D I *C 46.835 75.545 *L 0.0028 *D SDFFRHQX2
*I *784:Y O *C 48.865 77.865 *L 0 *D OAI222XL

*CAP
1 *498:1 2.12953e-05
2 *498:2 2.12953e-05
3 *498:3 0.000151568
4 *498:4 0.000151568
5 *498:5 0.000191658
6 *498:6 0.000191658

*RES
1 *498:6 *784:Y 1.4
2 *498:5 *498:6 1.11854
3 *498:4 *498:5 1.4
4 *498:3 *498:4 0.870021
5 *498:2 *498:3 1.4
6 *498:1 *498:2 0.124283
7 *781:D *498:1 1.4
*END

*D_NET *499 0.000875019

*CONN
*I *778:C0 I *C 48.575 89.465 *L 0.00287 *D OAI211X1
*I *783:Y O *C 45.675 86.855 *L 0 *D OAI211X1

*CAP
1 *499:1 0.000206834
2 *499:2 0.000206834
3 *499:3 0.000230675
4 *499:4 0.000230675

*RES
1 *499:5 *783:Y 1.4
2 *499:4 *499:5 1.4
3 *499:3 *499:4 1.24283
4 *499:2 *499:3 1.4
5 *499:1 *499:2 1.1186
6 *778:C0 *499:1 1.4
*END

*D_NET *500 0.000782232

*CONN
*I *779:B0 I *C 44.805 94.395 *L 0.00168 *D OAI31XL
*I *782:Y O *C 43.355 90.915 *L 0 *D OAI31X1

*CAP
1 *500:2 6.92026e-05
2 *500:3 6.92026e-05
3 *500:4 0.000275778
4 *500:5 0.000275778
5 *500:6 4.61351e-05
6 *500:7 4.61351e-05

*RES
1 *500:8 *782:Y 1.4
2 *500:7 *500:8 1.4
3 *500:6 *500:7 0.248566
4 *500:5 *500:6 1.4
5 *500:4 *500:5 1.49146
6 *500:3 *500:4 1.4
7 *500:2 *500:3 0.372849
8 *500:1 *500:2 1.4
9 *779:B0 *500:1 1.4
*END

*D_NET *501 0.00068979

*CONN
*I *775:B1 I *C 48.575 91.495 *L 0.00164 *D OAI222XL
*I *780:Y O *C 47.995 94.685 *L 0 *D MXI2XL

*CAP
1 *501:1 2.29815e-05
2 *501:2 2.29815e-05
3 *501:3 4.61351e-05
4 *501:4 4.61351e-05
5 *501:5 0.000275778
6 *501:6 0.000275778

*RES
1 *501:6 *780:Y 1.4
2 *501:5 *501:6 1.49146
3 *501:4 *501:5 1.4
4 *501:3 *501:4 0.248566
5 *501:2 *501:3 1.4
6 *501:1 *501:2 0.124289
7 *775:B1 *501:1 1.4
*END

*D_NET *502 0.0027023

*CONN
*I *777:D I *C 56.695 99.615 *L 0.00276 *D SDFFRHQX1
*I *779:Y O *C 45.095 93.815 *L 0 *D OAI31XL

*CAP
1 *502:2 0.000891518
2 *502:3 0.000891518
3 *502:4 0.000459631
4 *502:5 0.000459631

*RES
1 *502:5 *779:Y 1.4
2 *502:4 *502:5 2.48577
3 *502:3 *502:4 1.4
4 *502:2 *502:3 4.97141
5 *502:1 *502:2 1.4
6 *777:D *502:1 1.4
*END

*D_NET *503 0.00113792

*CONN
*I *776:D I *C 53.215 85.985 *L 0.0028 *D SDFFRHQX2
*I *778:Y O *C 48.285 88.305 *L 0 *D OAI211X1

*CAP
1 *503:2 0.000385107
2 *503:3 0.000385107
3 *503:4 0.000183852
4 *503:5 0.000183852

*RES
1 *503:5 *778:Y 1.4
2 *503:4 *503:5 0.99431
3 *503:3 *503:4 1.4
4 *503:2 *503:3 2.11283
5 *503:1 *503:2 1.4
6 *776:D *503:1 1.4
*END

*D_NET *504 0.00158139

*CONN
*I *774:D I *C 54.085 96.425 *L 0.0028 *D SDFFRHQX2
*I *775:Y O *C 48.865 92.075 *L 0 *D OAI222XL

*CAP
1 *504:1 2.0853e-05
2 *504:2 2.0853e-05
3 *504:3 0.000402139
4 *504:4 0.000402139
5 *504:5 0.000367705
6 *504:6 0.000367705

*RES
1 *504:6 *775:Y 1.4
2 *504:5 *504:6 1.98862
3 *504:4 *504:5 1.4
4 *504:3 *504:4 2.23713
5 *504:2 *504:3 1.4
6 *504:1 *504:2 0.124283
7 *774:D *504:1 1.4
*END

*D_NET *505 0.00209041

*CONN
*I *840:A I *C 95.845 101.935 *L 0.0017 *D MX2X1
*I *836:A I *C 99.615 101.645 *L 0.00162 *D NOR2XL
*I *837:B0 I *C 103.095 101.935 *L 0.00277 *D AOI21X1
*I *838:Y O *C 107.445 99.905 *L 0 *D AOI211X1

*CAP
1 *505:1 2.17156e-05
2 *505:2 2.17156e-05
3 *505:3 0.000270053
4 *505:4 0.000519333
5 *505:5 0.000538029
6 *505:6 4.34311e-05
7 *505:7 0.000288749
8 *505:8 2.17156e-05
9 *505:9 4.34311e-05
10 *505:10 0.000150261
11 *505:11 2.17156e-05
12 *505:13 0.000150261

*RES
1 *505:13 *838:Y 1.4
2 *505:11 *837:B0 1.4
3 *505:10 *505:13 0.994305
4 *505:9 *836:A 1.4
5 *505:8 *505:11 0.124289
6 *505:7 *505:10 1.4
7 *505:6 *505:9 0.248578
8 *505:5 *505:8 1.4
9 *505:5 *505:7 1.86427
10 *505:4 *505:6 1.4
11 *505:4 *505:5 1.49147
12 *505:3 *505:4 1.61575
13 *505:2 *505:3 1.4
14 *505:1 *505:2 0.124289
15 *840:A *505:1 1.4
*END

*D_NET *506 0.00104432

*CONN
*I *840:S0 I *C 96.135 102.225 *L 0.00371 *D MX2X1
*I *837:Y O *C 102.515 101.645 *L 0 *D AOI21X1
*I *836:B I *C 99.325 101.935 *L 0.00171 *D NOR2XL

*CAP
1 *506:1 4.34311e-05
2 *506:2 4.34311e-05
3 *506:3 0.000228507
4 *506:4 0.000457013
5 *506:5 0.000228507
6 *506:6 2.17156e-05
7 *506:8 2.17156e-05

*RES
1 *506:8 *836:B 1.4
2 *506:7 *837:Y 1.4
3 *506:6 *506:8 0.124289
4 *506:5 *506:7 1.4
5 *506:4 *506:6 1.4
6 *506:4 *506:5 1.36718
7 *506:3 *506:4 1.36718
8 *506:2 *506:3 1.4
9 *506:1 *506:2 0.248578
10 *840:S0 *506:1 1.4
*END

*D_NET *507 0.00332945

*CONN
*I *835:D I *C 76.415 101.645 *L 0.00276 *D SDFFRHQX1
*I *836:Y O *C 99.035 102.225 *L 0 *D NOR2XL

*CAP
1 *507:1 2.0853e-05
2 *507:2 2.0853e-05
3 *507:3 0.00162216
4 *507:4 0.00162216
5 *507:5 2.17156e-05
6 *507:6 2.17156e-05

*RES
1 *507:6 *836:Y 1.4
2 *507:5 *507:6 0.124289
3 *507:4 *507:5 1.4
4 *507:3 *507:4 9.69452
5 *507:2 *507:3 1.4
6 *507:1 *507:2 0.124283
7 *835:D *507:1 1.4
*END

*D_NET *508 0.000915911

*CONN
*I *839:D I *C 88.015 101.645 *L 0.00276 *D SDFFRHQX1
*I *840:Y O *C 94.105 101.935 *L 0 *D MX2X1

*CAP
1 *508:2 0.00043624
2 *508:3 0.00043624
3 *508:4 2.17156e-05
4 *508:5 2.17156e-05

*RES
1 *508:5 *840:Y 1.4
2 *508:4 *508:5 0.124289
3 *508:3 *508:4 1.4
4 *508:2 *508:3 2.61006
5 *508:1 *508:2 1.4
6 *839:D *508:1 1.4
*END

*D_NET *509 0.000624762

*CONN
*I *852:A0 I *C 68.005 18.125 *L 0.00265 *D AOI21X1
*I *855:Y O *C 66.6375 15.805 *L 0 *D INVXL

*CAP
1 *509:2 2.09534e-05
2 *509:3 2.09534e-05
3 *509:4 0.000139869
4 *509:5 0.000139869
5 *509:6 0.00012572
6 *509:7 0.00012572
7 *509:8 1.99813e-05
8 *509:9 2.58379e-05
9 *509:10 5.85659e-06

*RES
1 *509:10 *855:Y 1.4
2 *509:9 *509:10 0.0364295
3 *509:8 *509:9 0.124289
4 *509:7 *509:8 1.4
5 *509:6 *509:7 0.745733
6 *509:5 *509:6 1.4
7 *509:4 *509:5 0.870021
8 *509:3 *509:4 1.4
9 *509:2 *509:3 0.124289
10 *509:1 *509:2 1.4
11 *852:A0 *509:1 1.4
*END

*D_NET *510 0.00106868

*CONN
*I *851:B I *C 18.705 23.345 *L 0.00168 *D NAND2BXL
*I *850:B I *C 14.355 23.345 *L 0.00284 *D NAND2BX1
*I *854:Y O *C 11.455 23.925 *L 0 *D NOR2XL

*CAP
1 *510:2 0.000296079
2 *510:3 0.000493465
3 *510:5 0.000197386
4 *510:7 4.08773e-05
5 *510:8 4.08773e-05

*RES
1 *510:8 *854:Y 1.4
2 *510:7 *510:8 0.248565
3 *510:5 *510:7 1.4
4 *510:4 *850:B 1.4
5 *510:3 *510:5 1.24289
6 *510:3 *510:4 1.4
7 *510:2 *510:3 1.86433
8 *510:1 *510:2 1.4
9 *851:B *510:1 1.4
*END

*D_NET *511 0.000790396

*CONN
*I *842:B0 I *C 54.665 18.125 *L 0.00165 *D AO22X1
*I *853:Y O *C 59.305 17.835 *L 0 *D NOR3X1

*CAP
1 *511:1 3.99626e-05
2 *511:2 3.99626e-05
3 *511:3 0.000335254
4 *511:4 0.000335254
5 *511:5 1.99813e-05
6 *511:6 1.99813e-05

*RES
1 *511:6 *853:Y 1.4
2 *511:5 *511:6 0.124289
3 *511:4 *511:5 1.4
4 *511:3 *511:4 1.98862
5 *511:2 *511:3 1.4
6 *511:1 *511:2 0.248578
7 *842:B0 *511:1 1.4
*END

*D_NET *512 0.000622769

*CONN
*I *845:A1 I *C 63.365 18.415 *L 0.00274 *D OAI21X1
*I *852:Y O *C 66.845 18.125 *L 0 *D AOI21X1

*CAP
1 *512:1 3.99626e-05
2 *512:2 3.99626e-05
3 *512:3 0.00025144
4 *512:4 0.00025144
5 *512:5 1.99813e-05
6 *512:6 1.99813e-05

*RES
1 *512:6 *852:Y 1.4
2 *512:5 *512:6 0.124289
3 *512:4 *512:5 1.4
4 *512:3 *512:4 1.49147
5 *512:2 *512:3 1.4
6 *512:1 *512:2 0.248578
7 *845:A1 *512:1 1.4
*END

*D_NET *513 0.00143113

*CONN
*I *848:A2 I *C 27.695 21.315 *L 0.00276 *D AOI31X1
*I *851:Y O *C 18.995 23.055 *L 0 *D NAND2BXL

*CAP
1 *513:2 0.000573194
2 *513:3 0.000573194
3 *513:4 0.000122632
4 *513:5 0.000122632
5 *513:6 1.97386e-05
6 *513:7 1.97386e-05

*RES
1 *513:8 *851:Y 1.4
2 *513:7 *513:8 1.4
3 *513:6 *513:7 0.124289
4 *513:5 *513:6 1.4
5 *513:4 *513:5 0.745696
6 *513:3 *513:4 1.4
7 *513:2 *513:3 3.60434
8 *513:1 *513:2 1.4
9 *848:A2 *513:1 1.4
*END

*D_NET *514 0.00114764

*CONN
*I *849:A1 I *C 22.185 23.345 *L 0.00279 *D AOI211X1
*I *850:Y O *C 14.355 22.765 *L 0 *D NAND2BX1

*CAP
1 *514:1 2.04387e-05
2 *514:2 2.04387e-05
3 *514:3 0.000532942
4 *514:4 0.000532942
5 *514:5 2.04387e-05
6 *514:6 2.04387e-05

*RES
1 *514:6 *850:Y 1.4
2 *514:5 *514:6 0.124283
3 *514:4 *514:5 1.4
4 *514:3 *514:4 3.3558
5 *514:2 *514:3 1.4
6 *514:1 *514:2 0.124283
7 *849:A1 *514:1 1.4
*END

*D_NET *515 0.00106976

*CONN
*I *846:B I *C 30.015 23.345 *L 0.00175 *D NOR2BXL
*I *849:Y O *C 22.475 23.055 *L 0 *D AOI211X1

*CAP
1 *515:1 1.9775e-05
2 *515:2 1.9775e-05
3 *515:3 0.000515104
4 *515:4 0.000515104

*RES
1 *515:5 *849:Y 1.4
2 *515:4 *515:5 1.4
3 *515:3 *515:4 3.23143
4 *515:2 *515:3 1.4
5 *515:1 *515:2 0.124283
6 *846:B *515:1 1.4
*END

*D_NET *516 0.0019078

*CONN
*I *847:C I *C 40.745 21.315 *L 0.00289 *D NAND3BX1
*I *844:A I *C 36.975 21.025 *L 0.0017 *D MXI2XL
*I *848:Y O *C 27.695 21.605 *L 0 *D AOI31X1

*CAP
1 *516:1 1.9775e-05
2 *516:2 1.9775e-05
3 *516:3 0.000258432
4 *516:4 0.000894573
5 *516:5 3.955e-05
6 *516:6 0.000636141
7 *516:7 3.955e-05

*RES
1 *516:8 *848:Y 1.4
2 *516:7 *844:A 1.4
3 *516:6 *516:8 1.4
4 *516:5 *516:7 0.248566
5 *516:4 *516:6 3.97706
6 *516:4 *516:5 1.4
7 *516:3 *516:4 1.61568
8 *516:2 *516:3 1.4
9 *516:1 *516:2 0.124283
10 *847:C *516:1 1.4
*END

*D_NET *517 0.00358389

*CONN
*I *845:B0 I *C 63.945 18.125 *L 0.0028 *D OAI21X1
*I *847:Y O *C 41.035 20.735 *L 0 *D NAND3BX1

*CAP
1 *517:2 0.00149469
2 *517:3 0.00149469
3 *517:4 0.000177975
4 *517:5 0.000177975
5 *517:6 0.000119276
6 *517:7 0.000119276

*RES
1 *517:8 *847:Y 1.4
2 *517:7 *517:8 1.4
3 *517:6 *517:7 0.745699
4 *517:5 *517:6 1.4
5 *517:4 *517:5 1.11855
6 *517:3 *517:4 1.4
7 *517:2 *517:3 9.0729
8 *517:1 *517:2 1.4
9 *845:B0 *517:1 1.4
*END

*D_NET *518 0.00117137

*CONN
*I *844:B I *C 35.81 20.685 *L 0.00164 *D MXI2XL
*I *846:Y O *C 30.27 23.575 *L 0 *D NOR2BXL

*CAP
1 *518:1 3.40948e-07
2 *518:2 0.0002015
3 *518:3 0.000201159
4 *518:4 0.000377708
5 *518:5 0.000377708
6 *518:6 4.09138e-06
7 *518:7 6.47802e-06
8 *518:8 2.38664e-06

*RES
1 *518:8 *846:Y 1.4
2 *518:7 *518:8 0.0149997
3 *518:6 *518:7 0.0257138
4 *518:5 *518:6 1.4
5 *518:4 *518:5 2.36138
6 *518:3 *518:4 1.4
7 *518:2 *518:3 1.26426
8 *518:1 *518:2 0.00214281
9 *844:B *518:1 1.4
*END

*D_NET *519 0.000563365

*CONN
*I *843:D I *C 64.815 21.315 *L 0.00276 *D SDFFRHQX1
*I *845:Y O *C 64.235 17.835 *L 0 *D OAI21X1

*CAP
1 *519:2 2.09534e-05
2 *519:3 2.09534e-05
3 *519:4 0.000239776
4 *519:5 0.000239776
5 *519:6 2.09534e-05
6 *519:7 2.09534e-05

*RES
1 *519:8 *845:Y 1.4
2 *519:7 *519:8 1.4
3 *519:6 *519:7 0.124289
4 *519:5 *519:6 1.4
5 *519:4 *519:5 1.49146
6 *519:3 *519:4 1.4
7 *519:2 *519:3 0.124289
8 *519:1 *519:2 1.4
9 *843:D *519:1 1.4
*END

*D_NET *520 0.00312594

*CONN
*I *842:A1 I *C 55.825 18.125 *L 0.00163 *D AO22X1
*I *844:Y O *C 36.685 21.605 *L 0 *D MXI2XL

*CAP
1 *520:1 1.99813e-05
2 *520:2 1.99813e-05
3 *520:3 0.00132546
4 *520:4 0.00132546
5 *520:5 0.000217525
6 *520:6 0.000217525

*RES
1 *520:6 *844:Y 1.4
2 *520:5 *520:6 1.36711
3 *520:4 *520:5 1.4
4 *520:3 *520:4 8.20276
5 *520:2 *520:3 1.4
6 *520:1 *520:2 0.124289
7 *842:A1 *520:1 1.4
*END

*D_NET *521 0.000651067

*CONN
*I *841:D I *C 52.635 21.315 *L 0.00276 *D SDFFRHQX1
*I *842:Y O *C 53.795 18.415 *L 0 *D AO22X1

*CAP
1 *521:2 2.09534e-05
2 *521:3 2.09534e-05
3 *521:4 0.000159851
4 *521:5 0.000159851
5 *521:6 0.000104767
6 *521:7 0.000104767
7 *521:8 3.99626e-05
8 *521:9 3.99626e-05

*RES
1 *521:9 *842:Y 1.4
2 *521:8 *521:9 0.248578
3 *521:7 *521:8 1.4
4 *521:6 *521:7 0.621444
5 *521:5 *521:6 1.4
6 *521:4 *521:5 0.99431
7 *521:3 *521:4 1.4
8 *521:2 *521:3 0.124289
9 *521:1 *521:2 1.4
10 *841:D *521:1 1.4
*END

